********************************************************************************
Field Output Report, written Thu Feb  1 07:43:09 2024

Source 1
---------

   ODB: C:/abaqusTemp/Job-1rr.odb
   Step: Step-1
   Frame: Increment      1: Step Time =    1.000

Loc 1 : Nodal values from source 1

Output sorted by column "Node Label".

Field Output reported at nodes for part: PART-1-1
   Computation algorithm: EXTRAPOLATE_COMPUTE_AVERAGE
   Averaged at nodes
   Averaging regions: ODB_REGIONS

      Node Label    RF.Magnitude          RF.RF1          RF.RF2          RF.RF3    TF.Magnitude          TF.TF1          TF.TF2          TF.TF3     U.Magnitude            U.U1            U.U2            U.U3     E.Max. Prin  E.Max. Prin(a)     E.Mid. Prin     E.Min. Prin           E.E11           E.E22           E.E33           E.E12           E.E13           E.E23    EE.Max. Prin  EE.Max. Prin(a)    EE.Mid. Prin    EE.Min. Prin         EE.EE11         EE.EE22         EE.EE33         EE.EE12         EE.EE13         EE.EE23         S.Mises     S.Max. Prin  S.Max. Prin(a)     S.Mid. Prin     S.Min. Prin        S.Tresca      S.Pressure     S.Third Inv           S.S11           S.S22           S.S33           S.S12           S.S13           S.S23           SENER
                          @Loc 1          @Loc 1          @Loc 1          @Loc 1          @Loc 1          @Loc 1          @Loc 1          @Loc 1          @Loc 1          @Loc 1          @Loc 1          @Loc 1          @Loc 1          @Loc 1          @Loc 1          @Loc 1          @Loc 1          @Loc 1          @Loc 1          @Loc 1          @Loc 1          @Loc 1          @Loc 1          @Loc 1          @Loc 1          @Loc 1          @Loc 1          @Loc 1          @Loc 1          @Loc 1          @Loc 1          @Loc 1          @Loc 1          @Loc 1          @Loc 1          @Loc 1          @Loc 1          @Loc 1          @Loc 1          @Loc 1          @Loc 1          @Loc 1          @Loc 1          @Loc 1          @Loc 1          @Loc 1          @Loc 1
--------------------------------------------------------------------------------------------------------------------------------------------------------------------------------------------------------------------------------------------------------------------------------------------------------------------------------------------------------------------------------------------------------------------------------------------------------------------------------------------------------------------------------------------------------------------------------------------------------------------------------------------------------------------------------------------------------------------------------------------------------------------------------------------------
               1              0.              0.              0.              0.              1.              0.              0.              1.     1.15740E-03    -127.998E-06    -127.998E-06     1.14316E-03     434.058E-06     434.058E-06    -213.328E-06    -216.492E-06    -213.328E-06    -213.328E-06     430.895E-06    -5.25273E-18    -64.0012E-06    -64.0012E-06     434.058E-06     434.058E-06    -213.328E-06    -216.492E-06    -213.328E-06    -213.328E-06     430.895E-06    -5.25273E-18    -64.0012E-06    -64.0012E-06         4.34096         4.30656         4.30656    -23.7834E-03    -44.9447E-03         4.35151        -1.41261         4.34085    -23.7834E-03    -23.7834E-03         4.28540    -17.5677E-15    -214.051E-03    -214.051E-03     926.830E-06
               2              0.              0.              0.              0.              1.              0.              0.              1.     1.15740E-03    -127.998E-06     127.998E-06     1.14316E-03     434.058E-06     434.058E-06    -213.328E-06    -216.492E-06    -213.328E-06    -213.328E-06     430.895E-06    -3.32477E-18    -64.0012E-06     64.0012E-06     434.058E-06     434.058E-06    -213.328E-06    -216.492E-06    -213.328E-06    -213.328E-06     430.895E-06    -3.32477E-18    -64.0012E-06     64.0012E-06         4.34096         4.30656         4.30656    -23.7834E-03    -44.9447E-03         4.35151        -1.41261         4.34085    -23.7834E-03    -23.7834E-03         4.28540    -11.1196E-15    -214.051E-03     214.051E-03     926.830E-06
               3              0.              0.              0.              0.              0.              0.              0.              0.     760.336E-06    -63.9967E-06    -63.9967E-06     754.930E-06     368.236E-06     368.236E-06    -179.497E-06    -185.026E-06    -179.497E-06    -179.497E-06     362.707E-06    -17.1439E-18     13.2543E-06     13.2543E-06     368.236E-06     368.236E-06    -179.497E-06    -185.026E-06    -179.497E-06    -179.497E-06     362.707E-06    -17.1439E-18     13.2543E-06     13.2543E-06         3.68240         3.69247         3.69247     28.7088E-03    -8.27142E-03         3.70075        -1.23764         3.68196     28.7088E-03     28.7088E-03         3.65549    -57.3375E-15     44.3288E-03     44.3288E-03     657.052E-06
               4              0.              0.              0.              0.              0.              0.              0.              0.     760.336E-06    -63.9967E-06     63.9967E-06     754.930E-06     368.236E-06     368.236E-06    -179.497E-06    -185.026E-06    -179.497E-06    -179.497E-06     362.707E-06    -3.59120E-18     13.2543E-06    -13.2543E-06     368.236E-06     368.236E-06    -179.497E-06    -185.026E-06    -179.497E-06    -179.497E-06     362.707E-06    -3.59120E-18     13.2543E-06    -13.2543E-06         3.68240         3.69247         3.69247     28.7088E-03    -8.27142E-03         3.70075        -1.23764         3.68196     28.7088E-03     28.7088E-03         3.65549    -12.0107E-15     44.3288E-03    -44.3288E-03     657.052E-06
               5              0.              0.              0.              0.              0.              0.              0.              0.     383.149E-06    -154.507E-06    -154.507E-06     314.736E-06     471.142E-06     471.142E-06    -227.341E-06    -239.346E-06    -227.341E-06    -227.341E-06     459.137E-06     19.0504E-18    -31.9984E-06    -31.9984E-06     471.142E-06     471.142E-06    -227.341E-06    -239.346E-06    -227.341E-06    -227.341E-06     459.137E-06     19.0504E-18    -31.9984E-06    -31.9984E-06         4.71299         4.62660         4.62660    -45.5252E-03    -125.827E-03         4.75243        -1.48508         4.71085    -45.5252E-03    -45.5252E-03         4.54630     63.7138E-15    -107.018E-03    -107.018E-03     1.05712E-03
               6              0.              0.              0.              0.              0.              0.              0.              0.     383.149E-06    -154.507E-06     154.507E-06     314.736E-06     471.142E-06     471.142E-06    -227.341E-06    -239.346E-06    -227.341E-06    -227.341E-06     459.137E-06    -12.8551E-18    -31.9984E-06     31.9984E-06     471.142E-06     471.142E-06    -227.341E-06    -239.346E-06    -227.341E-06    -227.341E-06     459.137E-06    -12.8551E-18    -31.9984E-06     31.9984E-06         4.71299         4.62660         4.62660    -45.5252E-03    -125.827E-03         4.75243        -1.48508         4.71085    -45.5252E-03    -45.5252E-03         4.54630    -42.9937E-15    -107.018E-03     107.018E-03     1.05712E-03
               7         1.07928     287.084E-03     287.084E-03             -1.         1.07928     287.084E-03     287.084E-03             -1.              0.    -287.084E-39    -287.084E-39     1.00000E-36     245.938E-06     245.938E-06    -103.004E-06    -137.211E-06    -103.004E-06    -103.004E-06     211.731E-06     113.314E-21    -154.507E-06    -154.507E-06     245.938E-06     245.938E-06    -103.004E-06    -137.211E-06    -103.004E-06    -103.004E-06     211.731E-06     113.314E-21    -154.507E-06    -154.507E-06         2.45647         3.53981         3.53981         1.20575     976.946E-03         2.56287        -1.90750         2.43232         1.20575         1.20575         3.31101     378.978E-18    -516.744E-03    -516.744E-03     217.453E-06
               8         1.07928     287.084E-03    -287.084E-03             -1.         1.07928     287.084E-03    -287.084E-03             -1.              0.    -287.084E-39     287.084E-39     1.00000E-36     245.938E-06     245.938E-06    -103.004E-06    -137.211E-06    -103.004E-06    -103.004E-06     211.731E-06    -21.8910E-21    -154.507E-06     154.507E-06     245.938E-06     245.938E-06    -103.004E-06    -137.211E-06    -103.004E-06    -103.004E-06     211.731E-06    -21.8910E-21    -154.507E-06     154.507E-06         2.45647         3.53981         3.53981         1.20575     976.946E-03         2.56287        -1.90750         2.43232         1.20575         1.20575         3.31101    -73.2140E-18    -516.744E-03     516.744E-03     217.453E-06
               9              0.              0.              0.              0.              1.              0.              0.              1.     1.15740E-03     127.998E-06    -127.998E-06     1.14316E-03     434.058E-06     434.058E-06    -213.328E-06    -216.492E-06    -213.328E-06    -213.328E-06     430.895E-06    -18.4750E-18     64.0012E-06    -64.0012E-06     434.058E-06     434.058E-06    -213.328E-06    -216.492E-06    -213.328E-06    -213.328E-06     430.895E-06    -18.4750E-18     64.0012E-06    -64.0012E-06         4.34096         4.30656         4.30656    -23.7834E-03    -44.9447E-03         4.35151        -1.41261         4.34085    -23.7834E-03    -23.7834E-03         4.28540    -61.7894E-15     214.051E-03    -214.051E-03     926.830E-06
              10              0.              0.              0.              0.              1.              0.              0.              1.     1.15740E-03     127.998E-06     127.998E-06     1.14316E-03     434.058E-06     434.058E-06    -213.328E-06    -216.492E-06    -213.328E-06    -213.328E-06     430.895E-06    -16.4297E-18     64.0012E-06     64.0012E-06     434.058E-06     434.058E-06    -213.328E-06    -216.492E-06    -213.328E-06    -213.328E-06     430.895E-06    -16.4297E-18     64.0012E-06     64.0012E-06         4.34096         4.30656         4.30656    -23.7834E-03    -44.9447E-03         4.35151        -1.41261         4.34085    -23.7834E-03    -23.7834E-03         4.28540    -54.9487E-15     214.051E-03     214.051E-03     926.830E-06
              11              0.              0.              0.              0.              0.              0.              0.              0.     760.336E-06     63.9967E-06    -63.9967E-06     754.930E-06     368.236E-06     368.236E-06    -179.497E-06    -185.026E-06    -179.497E-06    -179.497E-06     362.707E-06     8.47661E-18    -13.2543E-06     13.2543E-06     368.236E-06     368.236E-06    -179.497E-06    -185.026E-06    -179.497E-06    -179.497E-06     362.707E-06     8.47661E-18    -13.2543E-06     13.2543E-06         3.68240         3.69247         3.69247     28.7088E-03    -8.27142E-03         3.70075        -1.23764         3.68196     28.7088E-03     28.7088E-03         3.65549     28.3499E-15    -44.3288E-03     44.3288E-03     657.052E-06
              12              0.              0.              0.              0.              0.              0.              0.              0.     760.336E-06     63.9967E-06     63.9967E-06     754.930E-06     368.236E-06     368.236E-06    -179.497E-06    -185.026E-06    -179.497E-06    -179.497E-06     362.707E-06     22.0739E-18    -13.2543E-06    -13.2543E-06     368.236E-06     368.236E-06    -179.497E-06    -185.026E-06    -179.497E-06    -179.497E-06     362.707E-06     22.0739E-18    -13.2543E-06    -13.2543E-06         3.68240         3.69247         3.69247     28.7088E-03    -8.27142E-03         3.70075        -1.23764         3.68196     28.7088E-03     28.7088E-03         3.65549     73.8256E-15    -44.3288E-03    -44.3288E-03     657.052E-06
              13              0.              0.              0.              0.              0.              0.              0.              0.     383.149E-06     154.507E-06    -154.507E-06     314.736E-06     471.142E-06     471.142E-06    -227.341E-06    -239.346E-06    -227.341E-06    -227.341E-06     459.137E-06     13.6104E-18     31.9984E-06    -31.9984E-06     471.142E-06     471.142E-06    -227.341E-06    -239.346E-06    -227.341E-06    -227.341E-06     459.137E-06     13.6104E-18     31.9984E-06    -31.9984E-06         4.71299         4.62660         4.62660    -45.5252E-03    -125.827E-03         4.75243        -1.48508         4.71085    -45.5252E-03    -45.5252E-03         4.54630     45.5196E-15     107.018E-03    -107.018E-03     1.05712E-03
              14              0.              0.              0.              0.              0.              0.              0.              0.     383.149E-06     154.507E-06     154.507E-06     314.736E-06     471.142E-06     471.142E-06    -227.341E-06    -239.346E-06    -227.341E-06    -227.341E-06     459.137E-06    -18.2929E-18     31.9984E-06     31.9984E-06     471.142E-06     471.142E-06    -227.341E-06    -239.346E-06    -227.341E-06    -227.341E-06     459.137E-06    -18.2929E-18     31.9984E-06     31.9984E-06         4.71299         4.62660         4.62660    -45.5252E-03    -125.827E-03         4.75243        -1.48508         4.71085    -45.5252E-03    -45.5252E-03         4.54630    -61.1802E-15     107.018E-03     107.018E-03     1.05712E-03
              15         1.07928    -287.084E-03     287.084E-03             -1.         1.07928    -287.084E-03     287.084E-03             -1.              0.     287.084E-39    -287.084E-39     1.00000E-36     245.938E-06     245.938E-06    -103.004E-06    -137.211E-06    -103.004E-06    -103.004E-06     211.731E-06     134.981E-21     154.507E-06    -154.507E-06     245.938E-06     245.938E-06    -103.004E-06    -137.211E-06    -103.004E-06    -103.004E-06     211.731E-06     134.981E-21     154.507E-06    -154.507E-06         2.45647         3.53981         3.53981         1.20575     976.946E-03         2.56287        -1.90750         2.43232         1.20575         1.20575         3.31101     451.441E-18     516.744E-03    -516.744E-03     217.453E-06
              16         1.07928    -287.084E-03    -287.084E-03             -1.         1.07928    -287.084E-03    -287.084E-03             -1.              0.     287.084E-39     287.084E-39     1.00000E-36     245.938E-06     245.938E-06    -103.004E-06    -137.211E-06    -103.004E-06    -103.004E-06     211.731E-06    -57.5085E-21     154.507E-06     154.507E-06     245.938E-06     245.938E-06    -103.004E-06    -137.211E-06    -103.004E-06    -103.004E-06     211.731E-06    -57.5085E-21     154.507E-06     154.507E-06         2.45647         3.53981         3.53981         1.20575     976.946E-03         2.56287        -1.90750         2.43232         1.20575         1.20575         3.31101    -192.336E-18     516.744E-03     516.744E-03     217.453E-06


  Minimum                     0.    -287.084E-03    -287.084E-03             -1.              0.    -287.084E-03    -287.084E-03             -1.              0.    -154.507E-06    -154.507E-06     1.00000E-36     245.938E-06     245.938E-06    -227.341E-06    -239.346E-06    -227.341E-06    -227.341E-06     211.731E-06    -18.4750E-18    -154.507E-06    -154.507E-06     245.938E-06     245.938E-06    -227.341E-06    -239.346E-06    -227.341E-06    -227.341E-06     211.731E-06    -18.4750E-18    -154.507E-06    -154.507E-06         2.45647         3.53981         3.53981    -45.5252E-03    -125.827E-03         2.56287        -1.90750         2.43232    -45.5252E-03    -45.5252E-03         3.31101    -61.7894E-15    -516.744E-03    -516.744E-03     217.453E-06
         At Node              14              16              16              16              14              16              16              16              16               6              13              16              16              16              14              14              14              14              16               9               8              15              16              16              14              14              14              14              16               9               8              15              16              16              16              14              14              16              16              16              14              14              16               9               8              15              16

  Maximum                1.07928     287.084E-03     287.084E-03              0.         1.07928     287.084E-03     287.084E-03              1.     1.15740E-03     154.507E-06     154.507E-06     1.14316E-03     471.142E-06     471.142E-06    -103.004E-06    -137.211E-06    -103.004E-06    -103.004E-06     459.137E-06     22.0739E-18     154.507E-06     154.507E-06     471.142E-06     471.142E-06    -103.004E-06    -137.211E-06    -103.004E-06    -103.004E-06     459.137E-06     22.0739E-18     154.507E-06     154.507E-06         4.71299         4.62660         4.62660         1.20575     976.946E-03         4.75243        -1.23764         4.71085         1.20575         1.20575         4.54630     73.8256E-15     516.744E-03     516.744E-03     1.05712E-03
         At Node              16               8              15              14              16               8              15              10              10              14              14              10              14              14              16              16              16              16              14              12              16              16              14              14              16              16              16              16              14              12              16              16              14              14              14              16              16              14              12              14              16              16              14              12              16              16              14

           Total         4.31710              0.              0.             -4.         8.31710              0.              0.              0.     9.20354E-03     574.169E-39              0.     8.85129E-03     6.07750E-03     6.07750E-03    -2.89268E-03    -3.11230E-03    -2.89268E-03    -2.89268E-03     5.85788E-03    -31.9852E-18              0.              0.     6.07750E-03     6.07750E-03    -2.89268E-03    -3.11230E-03    -2.89268E-03    -2.89268E-03     5.85788E-03    -31.9852E-18              0.              0.         60.7713         64.6618         64.6618         4.66061         3.19161         61.4702        -24.1713         60.6639         4.66061         4.66061         63.1928    -106.974E-15              0.              0.     11.4338E-03


