********************************************************************************
Field Output Report, written Wed Jan 10 07:10:38 2024

Source 1
---------

   ODB: C:/abaqusTemp/Job-1.odb
   Step: Step-1
   Frame: Increment      1: Step Time =    1.000

Loc 1 : Nodal values from source 1

Output sorted by column "Node Label".

Field Output reported at nodes for part: PART-1-1
   Computation algorithm: EXTRAPOLATE_COMPUTE_AVERAGE
   Averaged at nodes
   Averaging regions: ODB_REGIONS

      Node Label    TF.Magnitude          TF.TF1          TF.TF2          TF.TF3     U.Magnitude            U.U1            U.U2            U.U3     E.Max. Prin  E.Max. Prin(a)     E.Mid. Prin     E.Min. Prin           E.E11           E.E22           E.E33           E.E12           E.E13           E.E23    EE.Max. Prin  EE.Max. Prin(a)    EE.Mid. Prin    EE.Min. Prin         EE.EE11         EE.EE22         EE.EE33         EE.EE12         EE.EE13         EE.EE23         S.Mises     S.Max. Prin  S.Max. Prin(a)     S.Mid. Prin     S.Min. Prin        S.Tresca      S.Pressure     S.Third Inv           S.S11           S.S22           S.S33           S.S12           S.S13           S.S23
                          @Loc 1          @Loc 1          @Loc 1          @Loc 1          @Loc 1          @Loc 1          @Loc 1          @Loc 1          @Loc 1          @Loc 1          @Loc 1          @Loc 1          @Loc 1          @Loc 1          @Loc 1          @Loc 1          @Loc 1          @Loc 1          @Loc 1          @Loc 1          @Loc 1          @Loc 1          @Loc 1          @Loc 1          @Loc 1          @Loc 1          @Loc 1          @Loc 1          @Loc 1          @Loc 1          @Loc 1          @Loc 1          @Loc 1          @Loc 1          @Loc 1          @Loc 1          @Loc 1          @Loc 1          @Loc 1          @Loc 1          @Loc 1          @Loc 1
------------------------------------------------------------------------------------------------------------------------------------------------------------------------------------------------------------------------------------------------------------------------------------------------------------------------------------------------------------------------------------------------------------------------------------------------------------------------------------------------------------------------------------------------------------------------------------------------------------------------------------------------------------------------------------------------------------------
               1              0.              0.              0.              0.     2.46154E-03    -127.397E-06    -127.397E-06     2.45493E-03     99.9795E-06     99.9795E-06    -49.4875E-06    -49.4914E-06    -49.4894E-06    -49.4894E-06     99.9795E-06    -3.97159E-09    -11.4556E-09    -11.4556E-09     99.9795E-06     99.9795E-06    -49.4875E-06    -49.4914E-06    -49.4894E-06    -49.4894E-06     99.9795E-06    -3.97159E-09    -11.4556E-09    -11.4556E-09     999.792E-03         1.00007         1.00007     292.277E-06     265.708E-06     999.806E-03    -333.543E-03     999.792E-03     278.994E-06     278.994E-06         1.00007    -13.2829E-06    -38.3129E-06    -38.3129E-06
               2              0.              0.              0.              0.     2.45896E-03    -126.737E-06    -70.8113E-06     2.45467E-03     99.9856E-06     99.9856E-06    -49.4841E-06    -49.5013E-06    -49.4851E-06    -49.5003E-06     99.9856E-06    -1.71283E-09    -1.21713E-09    -4.55240E-09     99.9856E-06     99.9856E-06    -49.4841E-06    -49.5013E-06    -49.4851E-06    -49.5003E-06     99.9856E-06    -1.71283E-09    -1.21713E-09    -4.55240E-09     999.854E-03     999.987E-03     999.987E-03     190.182E-06     75.2598E-06     999.912E-03    -333.418E-03     999.854E-03     183.533E-06     81.9109E-06     999.987E-03    -5.72854E-06    -4.07067E-06    -15.2254E-06
               3              0.              0.              0.              0.     2.45823E-03    -126.836E-06    -28.1020E-06     2.45480E-03     99.9862E-06     99.9862E-06    -49.4853E-06    -49.5006E-06    -49.4854E-06    -49.5004E-06     99.9862E-06     272.960E-12     442.653E-12     1.17538E-09     99.9862E-06     99.9862E-06    -49.4853E-06    -49.5006E-06    -49.4854E-06    -49.5004E-06     99.9862E-06     272.960E-12     442.653E-12     1.17538E-09     999.860E-03         1.00000         1.00000     193.964E-06     91.1940E-06     999.912E-03    -333.429E-03     999.860E-03     192.825E-06     92.3344E-06         1.00000     912.910E-09     1.48045E-06     3.93105E-06
               4              0.              0.              0.              0.     2.45823E-03    -126.836E-06     28.1020E-06     2.45480E-03     99.9862E-06     99.9862E-06    -49.4853E-06    -49.5006E-06    -49.4854E-06    -49.5004E-06     99.9862E-06    -272.960E-12     442.653E-12    -1.17538E-09     99.9862E-06     99.9862E-06    -49.4853E-06    -49.5006E-06    -49.4854E-06    -49.5004E-06     99.9862E-06    -272.960E-12     442.653E-12    -1.17538E-09     999.860E-03         1.00000         1.00000     193.964E-06     91.1940E-06     999.912E-03    -333.429E-03     999.860E-03     192.825E-06     92.3344E-06         1.00000    -912.910E-09     1.48045E-06    -3.93105E-06
               5              0.              0.              0.              0.     2.45896E-03    -126.737E-06     70.8113E-06     2.45467E-03     99.9856E-06     99.9856E-06    -49.4841E-06    -49.5013E-06    -49.4851E-06    -49.5003E-06     99.9856E-06     1.71283E-09    -1.21713E-09     4.55240E-09     99.9856E-06     99.9856E-06    -49.4841E-06    -49.5013E-06    -49.4851E-06    -49.5003E-06     99.9856E-06     1.71283E-09    -1.21713E-09     4.55240E-09     999.854E-03     999.987E-03     999.987E-03     190.182E-06     75.2598E-06     999.912E-03    -333.418E-03     999.854E-03     183.533E-06     81.9109E-06     999.987E-03     5.72854E-06    -4.07067E-06     15.2254E-06
               6              0.              0.              0.              0.     2.46154E-03    -127.397E-06     127.397E-06     2.45493E-03     99.9795E-06     99.9795E-06    -49.4875E-06    -49.4914E-06    -49.4894E-06    -49.4894E-06     99.9795E-06     3.97159E-09    -11.4556E-09     11.4556E-09     99.9795E-06     99.9795E-06    -49.4875E-06    -49.4914E-06    -49.4894E-06    -49.4894E-06     99.9795E-06     3.97159E-09    -11.4556E-09     11.4556E-09     999.792E-03         1.00007         1.00007     292.277E-06     265.708E-06     999.806E-03    -333.543E-03     999.792E-03     278.994E-06     278.994E-06         1.00007     13.2829E-06    -38.3129E-06     38.3129E-06
               7              0.              0.              0.              0.     2.36099E-03    -120.114E-06    -120.114E-06     2.35487E-03     100.032E-06     100.032E-06    -49.5133E-06    -49.5188E-06    -49.5161E-06    -49.5161E-06     100.032E-06     1.51360E-09     5.69499E-09     5.69499E-09     100.032E-06     100.032E-06    -49.5133E-06    -49.5188E-06    -49.5161E-06    -49.5161E-06     100.032E-06     1.51360E-09     5.69499E-09     5.69499E-09         1.00032         1.00003         1.00003    -271.083E-06    -307.768E-06         1.00034    -333.150E-03         1.00032    -289.422E-06    -289.422E-06         1.00003     5.06221E-06     19.0468E-06     19.0468E-06
               8              0.              0.              0.              0.     2.35919E-03    -120.734E-06    -77.6844E-06     2.35482E-03     100.014E-06     100.014E-06    -49.4908E-06    -49.5234E-06    -49.5144E-06    -49.4998E-06     100.014E-06     538.243E-12     233.380E-12     1.22118E-09     100.014E-06     100.014E-06    -49.4908E-06    -49.5234E-06    -49.5144E-06    -49.4998E-06     100.014E-06     538.243E-12     233.380E-12     1.22118E-09         1.00014     999.999E-03     999.999E-03    -32.6874E-06    -250.454E-06         1.00025    -333.239E-03         1.00014    -190.455E-06    -92.6813E-06     999.999E-03     1.80014E-06     780.537E-09     4.08421E-06
               9              0.              0.              0.              0.     2.35803E-03    -120.654E-06    -21.4032E-06     2.35484E-03     100.014E-06     100.014E-06    -49.4918E-06    -49.5224E-06    -49.5141E-06    -49.5001E-06     100.014E-06    -218.558E-12    -464.615E-12    -1.62632E-09     100.014E-06     100.014E-06    -49.4918E-06    -49.5224E-06    -49.5141E-06    -49.5001E-06     100.014E-06    -218.558E-12    -464.615E-12    -1.62632E-09         1.00014     999.995E-03     999.995E-03    -42.5241E-06    -247.237E-06         1.00024    -333.235E-03         1.00014    -191.687E-06    -98.0719E-06     999.995E-03    -730.964E-09    -1.55390E-06    -5.43918E-06
              10              0.              0.              0.              0.     2.35803E-03    -120.654E-06     21.4032E-06     2.35484E-03     100.014E-06     100.014E-06    -49.4918E-06    -49.5224E-06    -49.5141E-06    -49.5001E-06     100.014E-06     218.558E-12    -464.615E-12     1.62632E-09     100.014E-06     100.014E-06    -49.4918E-06    -49.5224E-06    -49.5141E-06    -49.5001E-06     100.014E-06     218.558E-12    -464.615E-12     1.62632E-09         1.00014     999.995E-03     999.995E-03    -42.5241E-06    -247.237E-06         1.00024    -333.235E-03         1.00014    -191.687E-06    -98.0719E-06     999.995E-03     730.964E-09    -1.55390E-06     5.43918E-06
              11              0.              0.              0.              0.     2.35919E-03    -120.734E-06     77.6844E-06     2.35482E-03     100.014E-06     100.014E-06    -49.4908E-06    -49.5234E-06    -49.5144E-06    -49.4998E-06     100.014E-06    -538.243E-12     233.380E-12    -1.22118E-09     100.014E-06     100.014E-06    -49.4908E-06    -49.5234E-06    -49.5144E-06    -49.4998E-06     100.014E-06    -538.243E-12     233.380E-12    -1.22118E-09         1.00014     999.999E-03     999.999E-03    -32.6874E-06    -250.454E-06         1.00025    -333.239E-03         1.00014    -190.455E-06    -92.6813E-06     999.999E-03    -1.80014E-06     780.537E-09    -4.08421E-06
              12              0.              0.              0.              0.     2.36099E-03    -120.114E-06     120.114E-06     2.35487E-03     100.032E-06     100.032E-06    -49.5133E-06    -49.5188E-06    -49.5161E-06    -49.5161E-06     100.032E-06    -1.51360E-09     5.69499E-09    -5.69499E-09     100.032E-06     100.032E-06    -49.5133E-06    -49.5188E-06    -49.5161E-06    -49.5161E-06     100.032E-06    -1.51360E-09     5.69499E-09    -5.69499E-09         1.00032         1.00003         1.00003    -271.083E-06    -307.768E-06         1.00034    -333.150E-03         1.00032    -289.422E-06    -289.422E-06         1.00003    -5.06221E-06     19.0468E-06    -19.0468E-06
              13              0.              0.              0.              0.     2.26167E-03    -127.417E-06    -127.417E-06     2.25448E-03     99.9704E-06     99.9704E-06    -49.4820E-06    -49.4879E-06    -49.4849E-06    -49.4849E-06     99.9704E-06     1.09958E-09    -459.716E-12    -459.716E-12     99.9704E-06     99.9704E-06    -49.4820E-06    -49.4879E-06    -49.4849E-06    -49.4849E-06     99.9704E-06     1.09958E-09    -459.716E-12    -459.716E-12     999.701E-03         1.00000         1.00000     323.083E-06     283.623E-06     999.721E-03    -333.537E-03     999.701E-03     303.359E-06     303.359E-06         1.00000     3.67751E-06    -1.53751E-06    -1.53751E-06
              14              0.              0.              0.              0.     2.25939E-03    -126.817E-06    -70.7736E-06     2.25472E-03     99.9858E-06     99.9858E-06    -49.4620E-06    -49.5235E-06    -49.4857E-06    -49.4998E-06     99.9858E-06     623.659E-12     691.375E-12     624.293E-12     99.9858E-06     99.9858E-06    -49.4620E-06    -49.5235E-06    -49.4857E-06    -49.4998E-06     99.9858E-06     623.659E-12     691.375E-12     624.293E-12     999.856E-03         1.00001         1.00001     355.425E-06    -56.2494E-06         1.00006    -333.435E-03     999.856E-03     196.963E-06     102.223E-06         1.00001     2.08582E-06     2.31229E-06     2.08794E-06
              15              0.              0.              0.              0.     2.25834E-03    -126.887E-06    -28.1391E-06     2.25460E-03     99.9856E-06     99.9856E-06    -49.4626E-06    -49.5227E-06    -49.4856E-06    -49.4997E-06     99.9856E-06     73.8715E-12    -111.290E-12     854.151E-12     99.9856E-06     99.9856E-06    -49.4626E-06    -49.5227E-06    -49.4856E-06    -49.4997E-06     99.9856E-06     73.8715E-12    -111.290E-12     854.151E-12     999.854E-03    1000.000E-03    1000.000E-03     346.109E-06    -55.4895E-06         1.00006    -333.430E-03     999.854E-03     192.580E-06     98.0449E-06    1000.000E-03     247.062E-09    -372.205E-09     2.85669E-06
              16              0.              0.              0.              0.     2.25834E-03    -126.887E-06     28.1391E-06     2.25460E-03     99.9856E-06     99.9856E-06    -49.4626E-06    -49.5227E-06    -49.4856E-06    -49.4997E-06     99.9856E-06    -73.8715E-12    -111.290E-12    -854.151E-12     99.9856E-06     99.9856E-06    -49.4626E-06    -49.5227E-06    -49.4856E-06    -49.4997E-06     99.9856E-06    -73.8715E-12    -111.290E-12    -854.151E-12     999.854E-03    1000.000E-03    1000.000E-03     346.109E-06    -55.4895E-06         1.00006    -333.430E-03     999.854E-03     192.580E-06     98.0449E-06    1000.000E-03    -247.062E-09    -372.205E-09    -2.85669E-06
              17              0.              0.              0.              0.     2.25939E-03    -126.817E-06     70.7736E-06     2.25472E-03     99.9858E-06     99.9858E-06    -49.4620E-06    -49.5235E-06    -49.4857E-06    -49.4998E-06     99.9858E-06    -623.659E-12     691.375E-12    -624.293E-12     99.9858E-06     99.9858E-06    -49.4620E-06    -49.5235E-06    -49.4857E-06    -49.4998E-06     99.9858E-06    -623.659E-12     691.375E-12    -624.293E-12     999.856E-03         1.00001         1.00001     355.425E-06    -56.2494E-06         1.00006    -333.435E-03     999.856E-03     196.963E-06     102.223E-06         1.00001    -2.08582E-06     2.31229E-06    -2.08794E-06
              18              0.              0.              0.              0.     2.26167E-03    -127.417E-06     127.417E-06     2.25448E-03     99.9704E-06     99.9704E-06    -49.4820E-06    -49.4879E-06    -49.4849E-06    -49.4849E-06     99.9704E-06    -1.09958E-09    -459.716E-12     459.716E-12     99.9704E-06     99.9704E-06    -49.4820E-06    -49.4879E-06    -49.4849E-06    -49.4849E-06     99.9704E-06    -1.09958E-09    -459.716E-12     459.716E-12     999.701E-03         1.00000         1.00000     323.083E-06     283.623E-06     999.721E-03    -333.537E-03     999.701E-03     303.359E-06     303.359E-06         1.00000    -3.67751E-06    -1.53751E-06     1.53751E-06
              19              0.              0.              0.              0.     2.16189E-03    -120.012E-06    -120.012E-06     2.15522E-03     100.030E-06     100.030E-06    -49.5138E-06    -49.5172E-06    -49.5155E-06    -49.5155E-06     100.030E-06    -1.34700E-09     182.053E-12     182.053E-12     100.030E-06     100.030E-06    -49.5138E-06    -49.5172E-06    -49.5155E-06    -49.5155E-06     100.030E-06    -1.34700E-09     182.053E-12     182.053E-12         1.00031     999.998E-03     999.998E-03    -297.607E-06    -320.701E-06         1.00032    -333.126E-03         1.00031    -309.148E-06    -309.148E-06     999.998E-03    -4.50503E-06     608.874E-09     608.874E-09
              20              0.              0.              0.              0.     2.15961E-03    -120.608E-06    -77.8019E-06     2.15484E-03     100.015E-06     100.015E-06    -49.4631E-06    -49.5522E-06    -49.5150E-06    -49.5003E-06     100.015E-06    -452.936E-12    -102.689E-12     266.491E-12     100.015E-06     100.015E-06    -49.4631E-06    -49.5522E-06    -49.5150E-06    -49.5003E-06     100.015E-06    -452.936E-12    -102.689E-12     266.491E-12         1.00015    1000.000E-03    1000.000E-03     146.505E-06    -449.520E-06         1.00045    -333.232E-03         1.00015    -200.407E-06    -102.598E-06    1000.000E-03    -1.51484E-06    -343.442E-09     891.276E-09
              21              0.              0.              0.              0.     2.15850E-03    -120.541E-06    -21.2825E-06     2.15502E-03     100.014E-06     100.014E-06    -49.4631E-06    -49.5515E-06    -49.5148E-06    -49.4998E-06     100.014E-06     220.567E-12     181.803E-12     175.465E-12     100.014E-06     100.014E-06    -49.4631E-06    -49.5515E-06    -49.5148E-06    -49.4998E-06     100.014E-06     220.567E-12     181.803E-12     175.465E-12         1.00015     999.998E-03     999.998E-03     149.014E-06    -442.705E-06         1.00044    -333.235E-03         1.00014    -197.056E-06    -96.6289E-06     999.998E-03     737.681E-09     608.035E-09     586.839E-09
              22              0.              0.              0.              0.     2.15850E-03    -120.541E-06     21.2825E-06     2.15502E-03     100.014E-06     100.014E-06    -49.4631E-06    -49.5515E-06    -49.5148E-06    -49.4998E-06     100.014E-06    -220.567E-12     181.803E-12    -175.465E-12     100.014E-06     100.014E-06    -49.4631E-06    -49.5515E-06    -49.5148E-06    -49.4998E-06     100.014E-06    -220.567E-12     181.803E-12    -175.465E-12         1.00015     999.998E-03     999.998E-03     149.014E-06    -442.705E-06         1.00044    -333.235E-03         1.00014    -197.056E-06    -96.6289E-06     999.998E-03    -737.681E-09     608.035E-09    -586.839E-09
              23              0.              0.              0.              0.     2.15961E-03    -120.608E-06     77.8019E-06     2.15484E-03     100.015E-06     100.015E-06    -49.4631E-06    -49.5522E-06    -49.5150E-06    -49.5003E-06     100.015E-06     452.936E-12    -102.689E-12    -266.491E-12     100.015E-06     100.015E-06    -49.4631E-06    -49.5522E-06    -49.5150E-06    -49.5003E-06     100.015E-06     452.936E-12    -102.689E-12    -266.491E-12         1.00015    1000.000E-03    1000.000E-03     146.505E-06    -449.520E-06         1.00045    -333.232E-03         1.00015    -200.407E-06    -102.598E-06    1000.000E-03     1.51484E-06    -343.442E-09    -891.276E-09
              24              0.              0.              0.              0.     2.16189E-03    -120.012E-06     120.012E-06     2.15522E-03     100.030E-06     100.030E-06    -49.5138E-06    -49.5172E-06    -49.5155E-06    -49.5155E-06     100.030E-06     1.34700E-09     182.053E-12    -182.053E-12     100.030E-06     100.030E-06    -49.5138E-06    -49.5172E-06    -49.5155E-06    -49.5155E-06     100.030E-06     1.34700E-09     182.053E-12    -182.053E-12         1.00031     999.998E-03     999.998E-03    -297.607E-06    -320.701E-06         1.00032    -333.126E-03         1.00031    -309.148E-06    -309.148E-06     999.998E-03     4.50503E-06     608.874E-09    -608.874E-09
              25              0.              0.              0.              0.     2.06207E-03    -127.595E-06    -127.595E-06     2.05416E-03     99.9691E-06     99.9691E-06    -49.4836E-06    -49.4848E-06    -49.4842E-06    -49.4842E-06     99.9691E-06     1.22713E-09    -17.4207E-12    -17.4207E-12     99.9691E-06     99.9691E-06    -49.4836E-06    -49.4848E-06    -49.4842E-06    -49.4842E-06     99.9691E-06     1.22713E-09    -17.4207E-12    -17.4207E-12     999.688E-03         1.00000         1.00000     321.052E-06     312.857E-06     999.692E-03    -333.546E-03     999.688E-03     316.961E-06     316.961E-06         1.00000     4.10412E-06    -58.2659E-09    -58.2659E-09
              26              0.              0.              0.              0.     2.05980E-03    -126.993E-06    -70.5896E-06     2.05467E-03     99.9846E-06     99.9846E-06    -49.4333E-06    -49.5510E-06    -49.4846E-06    -49.4997E-06     99.9846E-06     378.492E-12     94.9507E-12    -90.5442E-12     99.9846E-06     99.9846E-06    -49.4333E-06    -49.5510E-06    -49.4846E-06    -49.4997E-06     99.9846E-06     378.492E-12     94.9507E-12    -90.5442E-12     999.845E-03         1.00000         1.00000     549.131E-06    -238.197E-06         1.00024    -333.437E-03     999.844E-03     205.952E-06     104.992E-06         1.00000     1.26586E-06     317.559E-09    -302.824E-09
              27              0.              0.              0.              0.     2.05854E-03    -127.061E-06    -28.3264E-06     2.05442E-03     99.9851E-06     99.9851E-06    -49.4336E-06    -49.5512E-06    -49.4847E-06    -49.5001E-06     99.9851E-06    -235.074E-12    -857.980E-15    -81.8339E-12     99.9851E-06     99.9851E-06    -49.4336E-06    -49.5512E-06    -49.4847E-06    -49.5001E-06     99.9851E-06    -235.074E-12    -857.980E-15    -81.8339E-12     999.850E-03         1.00000         1.00000     545.805E-06    -240.379E-06         1.00024    -333.436E-03     999.849E-03     204.031E-06     101.402E-06         1.00000    -786.200E-09    -2.87037E-09    -273.691E-09
              28              0.              0.              0.              0.     2.05854E-03    -127.061E-06     28.3264E-06     2.05442E-03     99.9851E-06     99.9851E-06    -49.4336E-06    -49.5512E-06    -49.4847E-06    -49.5001E-06     99.9851E-06     235.074E-12    -857.980E-15     81.8339E-12     99.9851E-06     99.9851E-06    -49.4336E-06    -49.5512E-06    -49.4847E-06    -49.5001E-06     99.9851E-06     235.074E-12    -857.980E-15     81.8339E-12     999.850E-03         1.00000         1.00000     545.805E-06    -240.379E-06         1.00024    -333.436E-03     999.849E-03     204.031E-06     101.402E-06         1.00000     786.200E-09    -2.87037E-09     273.692E-09
              29              0.              0.              0.              0.     2.05980E-03    -126.993E-06     70.5896E-06     2.05467E-03     99.9846E-06     99.9846E-06    -49.4333E-06    -49.5510E-06    -49.4846E-06    -49.4997E-06     99.9846E-06    -378.492E-12     94.9507E-12     90.5442E-12     99.9846E-06     99.9846E-06    -49.4333E-06    -49.5510E-06    -49.4846E-06    -49.4997E-06     99.9846E-06    -378.492E-12     94.9507E-12     90.5442E-12     999.845E-03         1.00000         1.00000     549.131E-06    -238.197E-06         1.00024    -333.437E-03     999.844E-03     205.952E-06     104.992E-06         1.00000    -1.26586E-06     317.559E-09     302.825E-09
              30              0.              0.              0.              0.     2.06207E-03    -127.595E-06     127.595E-06     2.05416E-03     99.9691E-06     99.9691E-06    -49.4836E-06    -49.4848E-06    -49.4842E-06    -49.4842E-06     99.9691E-06    -1.22713E-09    -17.4207E-12     17.4207E-12     99.9691E-06     99.9691E-06    -49.4836E-06    -49.4848E-06    -49.4842E-06    -49.4842E-06     99.9691E-06    -1.22713E-09    -17.4207E-12     17.4207E-12     999.688E-03         1.00000         1.00000     321.052E-06     312.857E-06     999.692E-03    -333.546E-03     999.688E-03     316.961E-06     316.961E-06         1.00000    -4.10412E-06    -58.2659E-09     58.2659E-09
              31              0.              0.              0.              0.     1.96286E-03    -119.762E-06    -119.762E-06     1.95554E-03     100.032E-06     100.032E-06    -49.5156E-06    -49.5170E-06    -49.5163E-06    -49.5163E-06     100.032E-06    -994.099E-12     250.507E-12     250.507E-12     100.032E-06     100.032E-06    -49.5156E-06    -49.5170E-06    -49.5163E-06    -49.5163E-06     100.032E-06    -994.099E-12     250.507E-12     250.507E-12         1.00032     999.995E-03     999.995E-03    -323.138E-06    -332.120E-06         1.00033    -333.113E-03         1.00032    -327.623E-06    -327.623E-06     999.995E-03    -3.32474E-06     837.812E-09     837.812E-09
              32              0.              0.              0.              0.     1.96015E-03    -120.377E-06    -78.0510E-06     1.95489E-03     100.016E-06     100.016E-06    -49.4338E-06    -49.5824E-06    -49.5160E-06    -49.5002E-06     100.016E-06    -282.535E-12     18.0749E-12     148.216E-12     100.016E-06     100.016E-06    -49.4338E-06    -49.5824E-06    -49.5160E-06    -49.5002E-06     100.016E-06    -282.535E-12     18.0749E-12     148.216E-12         1.00016    1000.000E-03    1000.000E-03     336.476E-06    -657.714E-06         1.00066    -333.226E-03         1.00016    -213.368E-06    -107.858E-06    1000.000E-03    -944.935E-09     60.4487E-09     495.703E-09
              33              0.              0.              0.              0.     1.95901E-03    -120.305E-06    -21.0340E-06     1.95520E-03     100.015E-06     100.015E-06    -49.4338E-06    -49.5820E-06    -49.5159E-06    -49.4999E-06     100.015E-06     214.514E-12    -3.52918E-12     22.9621E-12     100.015E-06     100.015E-06    -49.4338E-06    -49.5820E-06    -49.5159E-06    -49.4999E-06     100.015E-06     214.514E-12    -3.52918E-12     22.9621E-12         1.00016     999.997E-03     999.997E-03     336.501E-06    -654.584E-06         1.00065    -333.226E-03         1.00015    -212.485E-06    -105.592E-06     999.997E-03     717.438E-09    -11.8034E-09     76.7969E-09
              34              0.              0.              0.              0.     1.95901E-03    -120.305E-06     21.0340E-06     1.95520E-03     100.015E-06     100.015E-06    -49.4338E-06    -49.5820E-06    -49.5159E-06    -49.4999E-06     100.015E-06    -214.514E-12    -3.52918E-12    -22.9621E-12     100.015E-06     100.015E-06    -49.4338E-06    -49.5820E-06    -49.5159E-06    -49.4999E-06     100.015E-06    -214.514E-12    -3.52918E-12    -22.9621E-12         1.00016     999.997E-03     999.997E-03     336.501E-06    -654.584E-06         1.00065    -333.226E-03         1.00015    -212.485E-06    -105.592E-06     999.997E-03    -717.438E-09    -11.8034E-09    -76.7958E-09
              35              0.              0.              0.              0.     1.96015E-03    -120.377E-06     78.0510E-06     1.95489E-03     100.016E-06     100.016E-06    -49.4338E-06    -49.5824E-06    -49.5160E-06    -49.5002E-06     100.016E-06     282.535E-12     18.0749E-12    -148.216E-12     100.016E-06     100.016E-06    -49.4338E-06    -49.5824E-06    -49.5160E-06    -49.5002E-06     100.016E-06     282.535E-12     18.0749E-12    -148.216E-12         1.00016    1000.000E-03    1000.000E-03     336.476E-06    -657.714E-06         1.00066    -333.226E-03         1.00016    -213.368E-06    -107.858E-06    1000.000E-03     944.935E-09     60.4487E-09    -495.702E-09
              36              0.              0.              0.              0.     1.96286E-03    -119.762E-06     119.762E-06     1.95554E-03     100.032E-06     100.032E-06    -49.5156E-06    -49.5170E-06    -49.5163E-06    -49.5163E-06     100.032E-06     994.099E-12     250.507E-12    -250.507E-12     100.032E-06     100.032E-06    -49.5156E-06    -49.5170E-06    -49.5163E-06    -49.5163E-06     100.032E-06     994.099E-12     250.507E-12    -250.507E-12         1.00032     999.995E-03     999.995E-03    -323.138E-06    -332.120E-06         1.00033    -333.113E-03         1.00032    -327.623E-06    -327.623E-06     999.995E-03     3.32474E-06     837.812E-09    -837.812E-09
              37              0.              0.              0.              0.     1.86264E-03    -127.918E-06    -127.918E-06     1.85383E-03     99.9666E-06     99.9666E-06    -49.4814E-06    -49.4846E-06    -49.4830E-06    -49.4830E-06     99.9666E-06     804.357E-12    -461.059E-12    -461.059E-12     99.9666E-06     99.9666E-06    -49.4814E-06    -49.4846E-06    -49.4830E-06    -49.4830E-06     99.9666E-06     804.357E-12    -461.059E-12    -461.059E-12     999.663E-03         1.00001         1.00001     352.380E-06     331.369E-06     999.674E-03    -333.563E-03     999.663E-03     341.882E-06     341.882E-06         1.00001     2.69016E-06    -1.54200E-06    -1.54200E-06
              38              0.              0.              0.              0.     1.86031E-03    -127.283E-06    -70.2752E-06     1.85462E-03     99.9834E-06     99.9834E-06    -49.4006E-06    -49.5825E-06    -49.4833E-06    -49.4998E-06     99.9834E-06     218.996E-12    -44.8872E-12    -172.536E-12     99.9834E-06     99.9834E-06    -49.4006E-06    -49.5825E-06    -49.4833E-06    -49.4998E-06     99.9834E-06     218.996E-12    -44.8872E-12    -172.536E-12     999.834E-03         1.00000         1.00000     776.024E-06    -440.481E-06         1.00044    -333.445E-03     999.830E-03     223.169E-06     112.384E-06         1.00000     732.428E-09    -150.127E-09    -577.046E-09
              39              0.              0.              0.              0.     1.85883E-03    -127.362E-06    -28.6373E-06     1.85424E-03     99.9837E-06     99.9837E-06    -49.4014E-06    -49.5820E-06    -49.4833E-06    -49.5001E-06     99.9837E-06    -183.183E-12     24.0323E-12     57.9930E-12     99.9837E-06     99.9837E-06    -49.4014E-06    -49.5820E-06    -49.4833E-06    -49.5001E-06     99.9837E-06    -183.183E-12     24.0323E-12     57.9930E-12     999.837E-03         1.00000         1.00000     771.287E-06    -437.334E-06         1.00044    -333.446E-03     999.833E-03     222.943E-06     111.017E-06         1.00000    -612.651E-09     80.3757E-09     193.956E-09
              40              0.              0.              0.              0.     1.85883E-03    -127.362E-06     28.6373E-06     1.85424E-03     99.9837E-06     99.9837E-06    -49.4014E-06    -49.5820E-06    -49.4833E-06    -49.5001E-06     99.9837E-06     183.183E-12     24.0323E-12    -57.9929E-12     99.9837E-06     99.9837E-06    -49.4014E-06    -49.5820E-06    -49.4833E-06    -49.5001E-06     99.9837E-06     183.183E-12     24.0323E-12    -57.9929E-12     999.837E-03         1.00000         1.00000     771.287E-06    -437.334E-06         1.00044    -333.446E-03     999.833E-03     222.943E-06     111.017E-06         1.00000     612.651E-09     80.3757E-09    -193.956E-09
              41              0.              0.              0.              0.     1.86031E-03    -127.283E-06     70.2752E-06     1.85462E-03     99.9834E-06     99.9834E-06    -49.4006E-06    -49.5825E-06    -49.4833E-06    -49.4998E-06     99.9834E-06    -218.996E-12    -44.8872E-12     172.536E-12     99.9834E-06     99.9834E-06    -49.4006E-06    -49.5825E-06    -49.4833E-06    -49.4998E-06     99.9834E-06    -218.996E-12    -44.8872E-12     172.536E-12     999.834E-03         1.00000         1.00000     776.024E-06    -440.481E-06         1.00044    -333.445E-03     999.830E-03     223.169E-06     112.384E-06         1.00000    -732.428E-09    -150.127E-09     577.046E-09
              42              0.              0.              0.              0.     1.86264E-03    -127.918E-06     127.918E-06     1.85383E-03     99.9666E-06     99.9666E-06    -49.4814E-06    -49.4846E-06    -49.4830E-06    -49.4830E-06     99.9666E-06    -804.357E-12    -461.059E-12     461.059E-12     99.9666E-06     99.9666E-06    -49.4814E-06    -49.4846E-06    -49.4830E-06    -49.4830E-06     99.9666E-06    -804.357E-12    -461.059E-12     461.059E-12     999.663E-03         1.00001         1.00001     352.380E-06     331.369E-06     999.674E-03    -333.563E-03     999.663E-03     341.882E-06     341.882E-06         1.00001    -2.69016E-06    -1.54200E-06     1.54200E-06
              43              0.              0.              0.              0.     1.76397E-03    -119.365E-06    -119.365E-06     1.75588E-03     100.035E-06     100.035E-06    -49.5156E-06    -49.5202E-06    -49.5179E-06    -49.5179E-06     100.035E-06    -676.803E-12     636.826E-12     636.826E-12     100.035E-06     100.035E-06    -49.5156E-06    -49.5202E-06    -49.5179E-06    -49.5179E-06     100.035E-06    -676.803E-12     636.826E-12     636.826E-12         1.00035     999.995E-03     999.995E-03    -344.095E-06    -375.014E-06         1.00037    -333.092E-03         1.00035    -359.547E-06    -359.547E-06     999.995E-03    -2.26355E-06     2.12985E-06     2.12985E-06
              44              0.              0.              0.              0.     1.76080E-03    -120.026E-06    -78.4333E-06     1.75495E-03     100.017E-06     100.017E-06    -49.4006E-06    -49.6172E-06    -49.5177E-06    -49.5002E-06     100.017E-06    -178.585E-12     37.0344E-12     198.781E-12     100.017E-06     100.017E-06    -49.4006E-06    -49.6172E-06    -49.5177E-06    -49.5002E-06     100.017E-06    -178.585E-12     37.0344E-12     198.781E-12         1.00018    1000.000E-03    1000.000E-03     547.908E-06    -901.292E-06         1.00090    -333.215E-03         1.00017    -235.160E-06    -118.212E-06    1000.000E-03    -597.275E-09     123.859E-09     664.819E-09
              45              0.              0.              0.              0.     1.75961E-03    -119.938E-06    -20.6579E-06     1.75540E-03     100.017E-06     100.017E-06    -49.4012E-06    -49.6163E-06    -49.5176E-06    -49.4999E-06     100.017E-06     159.816E-12    -42.7507E-12    -119.632E-12     100.017E-06     100.017E-06    -49.4012E-06    -49.6163E-06    -49.5176E-06    -49.4999E-06     100.017E-06     159.816E-12    -42.7507E-12    -119.632E-12         1.00018     999.997E-03     999.997E-03     542.959E-06    -895.669E-06         1.00089    -333.215E-03         1.00017    -235.387E-06    -117.314E-06     999.997E-03     534.502E-09    -142.980E-09    -400.107E-09
              46              0.              0.              0.              0.     1.75961E-03    -119.938E-06     20.6579E-06     1.75540E-03     100.017E-06     100.017E-06    -49.4012E-06    -49.6163E-06    -49.5176E-06    -49.4999E-06     100.017E-06    -159.816E-12    -42.7507E-12     119.632E-12     100.017E-06     100.017E-06    -49.4012E-06    -49.6163E-06    -49.5176E-06    -49.4999E-06     100.017E-06    -159.816E-12    -42.7507E-12     119.632E-12         1.00018     999.997E-03     999.997E-03     542.959E-06    -895.669E-06         1.00089    -333.215E-03         1.00017    -235.387E-06    -117.314E-06     999.997E-03    -534.502E-09    -142.980E-09     400.107E-09
              47              0.              0.              0.              0.     1.76080E-03    -120.026E-06     78.4333E-06     1.75495E-03     100.017E-06     100.017E-06    -49.4006E-06    -49.6172E-06    -49.5177E-06    -49.5002E-06     100.017E-06     178.585E-12     37.0344E-12    -198.781E-12     100.017E-06     100.017E-06    -49.4006E-06    -49.6172E-06    -49.5177E-06    -49.5002E-06     100.017E-06     178.585E-12     37.0344E-12    -198.781E-12         1.00018    1000.000E-03    1000.000E-03     547.908E-06    -901.292E-06         1.00090    -333.215E-03         1.00017    -235.160E-06    -118.212E-06    1000.000E-03     597.276E-09     123.859E-09    -664.819E-09
              48              0.              0.              0.              0.     1.76397E-03    -119.365E-06     119.365E-06     1.75588E-03     100.035E-06     100.035E-06    -49.5156E-06    -49.5202E-06    -49.5179E-06    -49.5179E-06     100.035E-06     676.803E-12     636.826E-12    -636.826E-12     100.035E-06     100.035E-06    -49.5156E-06    -49.5202E-06    -49.5179E-06    -49.5179E-06     100.035E-06     676.803E-12     636.826E-12    -636.826E-12         1.00035     999.995E-03     999.995E-03    -344.095E-06    -375.014E-06         1.00037    -333.092E-03         1.00035    -359.547E-06    -359.547E-06     999.995E-03     2.26355E-06     2.12985E-06    -2.12985E-06
              49              0.              0.              0.              0.     1.66342E-03    -128.391E-06    -128.391E-06     1.65348E-03     99.9629E-06     99.9629E-06    -49.4781E-06    -49.4840E-06    -49.4810E-06    -49.4810E-06     99.9629E-06     608.760E-12    -805.642E-12    -805.642E-12     99.9629E-06     99.9629E-06    -49.4781E-06    -49.4840E-06    -49.4810E-06    -49.4810E-06     99.9629E-06     608.760E-12    -805.642E-12    -805.642E-12     999.625E-03         1.00001         1.00001     400.333E-06     360.816E-06     999.645E-03    -333.589E-03     999.625E-03     380.583E-06     380.583E-06         1.00001     2.03599E-06    -2.69445E-06    -2.69445E-06
              50              0.              0.              0.              0.     1.66094E-03    -127.700E-06    -69.8218E-06     1.65455E-03     99.9815E-06     99.9815E-06    -49.3639E-06    -49.6172E-06    -49.4813E-06    -49.4998E-06     99.9815E-06     158.430E-12    -32.8018E-12    -244.454E-12     99.9815E-06     99.9815E-06    -49.3639E-06    -49.6172E-06    -49.4813E-06    -49.4998E-06     99.9815E-06     158.430E-12    -32.8018E-12    -244.454E-12     999.815E-03         1.00000         1.00000     1.03458E-03    -659.958E-06         1.00066    -333.458E-03     999.809E-03     249.359E-06     125.275E-06         1.00000     529.866E-09    -109.705E-09    -817.571E-09
              51              0.              0.              0.              0.     1.65921E-03    -127.799E-06    -29.0823E-06     1.65403E-03     99.9817E-06     99.9817E-06    -49.3649E-06    -49.6164E-06    -49.4813E-06    -49.5001E-06     99.9817E-06    -145.950E-12     41.3185E-12     158.367E-12     99.9817E-06     99.9817E-06    -49.3649E-06    -49.6164E-06    -49.4813E-06    -49.5001E-06     99.9817E-06    -145.950E-12     41.3185E-12     158.367E-12     999.818E-03         1.00000         1.00000     1.02835E-03    -653.707E-06         1.00066    -333.459E-03     999.811E-03     250.002E-06     124.651E-06         1.00000    -488.128E-09     138.189E-09     529.656E-09
              52              0.              0.              0.              0.     1.65921E-03    -127.799E-06     29.0823E-06     1.65403E-03     99.9817E-06     99.9817E-06    -49.3649E-06    -49.6164E-06    -49.4813E-06    -49.5001E-06     99.9817E-06     145.950E-12     41.3185E-12    -158.367E-12     99.9817E-06     99.9817E-06    -49.3649E-06    -49.6164E-06    -49.4813E-06    -49.5001E-06     99.9817E-06     145.950E-12     41.3185E-12    -158.367E-12     999.818E-03         1.00000         1.00000     1.02835E-03    -653.707E-06         1.00066    -333.459E-03     999.811E-03     250.002E-06     124.651E-06         1.00000     488.128E-09     138.189E-09    -529.656E-09
              53              0.              0.              0.              0.     1.66094E-03    -127.700E-06     69.8218E-06     1.65455E-03     99.9815E-06     99.9815E-06    -49.3639E-06    -49.6172E-06    -49.4813E-06    -49.4998E-06     99.9815E-06    -158.430E-12    -32.8018E-12     244.454E-12     99.9815E-06     99.9815E-06    -49.3639E-06    -49.6172E-06    -49.4813E-06    -49.4998E-06     99.9815E-06    -158.430E-12    -32.8018E-12     244.454E-12     999.815E-03         1.00000         1.00000     1.03458E-03    -659.958E-06         1.00066    -333.458E-03     999.809E-03     249.359E-06     125.275E-06         1.00000    -529.866E-09    -109.705E-09     817.571E-09
              54              0.              0.              0.              0.     1.66342E-03    -128.391E-06     128.391E-06     1.65348E-03     99.9629E-06     99.9629E-06    -49.4781E-06    -49.4840E-06    -49.4810E-06    -49.4810E-06     99.9629E-06    -608.760E-12    -805.642E-12     805.642E-12     99.9629E-06     99.9629E-06    -49.4781E-06    -49.4840E-06    -49.4810E-06    -49.4810E-06     99.9629E-06    -608.760E-12    -805.642E-12     805.642E-12     999.625E-03         1.00001         1.00001     400.333E-06     360.816E-06     999.645E-03    -333.589E-03     999.625E-03     380.583E-06     380.583E-06         1.00001    -2.03599E-06    -2.69445E-06     2.69445E-06
              55              0.              0.              0.              0.     1.56530E-03    -118.813E-06    -118.813E-06     1.55625E-03     100.040E-06     100.040E-06    -49.5166E-06    -49.5237E-06    -49.5202E-06    -49.5202E-06     100.040E-06    -595.084E-12     971.303E-12     971.303E-12     100.040E-06     100.040E-06    -49.5166E-06    -49.5237E-06    -49.5202E-06    -49.5202E-06     100.040E-06    -595.084E-12     971.303E-12     971.303E-12         1.00040     999.994E-03     999.994E-03    -381.325E-06    -428.896E-06         1.00042    -333.061E-03         1.00040    -405.101E-06    -405.101E-06     999.994E-03    -1.99025E-06     3.24850E-06     3.24850E-06
              56              0.              0.              0.              0.     1.56160E-03    -119.538E-06    -78.9617E-06     1.55501E-03     100.020E-06     100.020E-06    -49.3639E-06    -49.6562E-06    -49.5200E-06    -49.5002E-06     100.020E-06    -159.855E-12     24.3126E-12     285.258E-12     100.020E-06     100.020E-06    -49.3639E-06    -49.6562E-06    -49.5200E-06    -49.5002E-06     100.020E-06    -159.855E-12     24.3126E-12     285.258E-12         1.00020    1000.000E-03    1000.000E-03     777.727E-06    -1.17722E-03         1.00118    -333.200E-03         1.00019    -265.884E-06    -133.592E-06    1000.000E-03    -534.632E-09     81.3143E-09     954.040E-09
              57              0.              0.              0.              0.     1.56033E-03    -119.425E-06    -20.1399E-06     1.55562E-03     100.019E-06     100.019E-06    -49.3648E-06    -49.6551E-06    -49.5200E-06    -49.4999E-06     100.019E-06     137.687E-12    -47.4158E-12    -200.393E-12     100.019E-06     100.019E-06    -49.3648E-06    -49.6551E-06    -49.5200E-06    -49.4999E-06     100.019E-06     137.687E-12    -47.4158E-12    -200.393E-12         1.00020     999.997E-03     999.997E-03     770.559E-06    -1.17069E-03         1.00117    -333.199E-03         1.00019    -266.980E-06    -133.145E-06     999.997E-03     460.490E-09    -158.579E-09    -670.212E-09
              58              0.              0.              0.              0.     1.56033E-03    -119.425E-06     20.1399E-06     1.55562E-03     100.019E-06     100.019E-06    -49.3648E-06    -49.6551E-06    -49.5200E-06    -49.4999E-06     100.019E-06    -137.687E-12    -47.4158E-12     200.394E-12     100.019E-06     100.019E-06    -49.3648E-06    -49.6551E-06    -49.5200E-06    -49.4999E-06     100.019E-06    -137.687E-12    -47.4158E-12     200.394E-12         1.00020     999.997E-03     999.997E-03     770.559E-06    -1.17069E-03         1.00117    -333.199E-03         1.00019    -266.980E-06    -133.145E-06     999.997E-03    -460.490E-09    -158.579E-09     670.212E-09
              59              0.              0.              0.              0.     1.56160E-03    -119.538E-06     78.9617E-06     1.55501E-03     100.020E-06     100.020E-06    -49.3639E-06    -49.6562E-06    -49.5200E-06    -49.5002E-06     100.020E-06     159.855E-12     24.3126E-12    -285.258E-12     100.020E-06     100.020E-06    -49.3639E-06    -49.6562E-06    -49.5200E-06    -49.5002E-06     100.020E-06     159.855E-12     24.3126E-12    -285.258E-12         1.00020    1000.000E-03    1000.000E-03     777.727E-06    -1.17722E-03         1.00118    -333.200E-03         1.00019    -265.884E-06    -133.592E-06    1000.000E-03     534.632E-09     81.3143E-09    -954.040E-09
              60              0.              0.              0.              0.     1.56530E-03    -118.813E-06     118.813E-06     1.55625E-03     100.040E-06     100.040E-06    -49.5166E-06    -49.5237E-06    -49.5202E-06    -49.5202E-06     100.040E-06     595.084E-12     971.303E-12    -971.303E-12     100.040E-06     100.040E-06    -49.5166E-06    -49.5237E-06    -49.5202E-06    -49.5202E-06     100.040E-06     595.084E-12     971.303E-12    -971.303E-12         1.00040     999.994E-03     999.994E-03    -381.325E-06    -428.896E-06         1.00042    -333.061E-03         1.00040    -405.101E-06    -405.101E-06     999.994E-03     1.99025E-06     3.24850E-06    -3.24850E-06
              61              0.              0.              0.              0.     1.46449E-03    -129.027E-06    -129.027E-06     1.45307E-03     99.9577E-06     99.9577E-06    -49.4743E-06    -49.4826E-06    -49.4784E-06    -49.4784E-06     99.9577E-06     614.277E-12    -1.12799E-09    -1.12799E-09     99.9577E-06     99.9577E-06    -49.4743E-06    -49.4826E-06    -49.4784E-06    -49.4784E-06     99.9577E-06     614.277E-12    -1.12799E-09    -1.12799E-09     999.573E-03         1.00001         1.00001     461.099E-06     405.442E-06     999.601E-03    -333.624E-03     999.573E-03     433.282E-06     433.282E-06         1.00001     2.05444E-06    -3.77253E-06    -3.77253E-06
              62              0.              0.              0.              0.     1.46177E-03    -128.262E-06    -69.2140E-06     1.45448E-03     99.9788E-06     99.9788E-06    -49.3223E-06    -49.6561E-06    -49.4786E-06    -49.4998E-06     99.9788E-06     160.224E-12    -840.217E-15    -276.223E-12     99.9788E-06     99.9788E-06    -49.3223E-06    -49.6561E-06    -49.4786E-06    -49.4998E-06     99.9788E-06     160.224E-12    -840.217E-15    -276.223E-12     999.790E-03         1.00000         1.00000     1.33047E-03    -902.567E-06         1.00090    -333.476E-03     999.779E-03     284.832E-06     143.086E-06         1.00000     535.867E-09    -2.80852E-09    -923.825E-09
              63              0.              0.              0.              0.     1.45976E-03    -128.391E-06    -29.6779E-06     1.45380E-03     99.9791E-06     99.9791E-06    -49.3235E-06    -49.6552E-06    -49.4786E-06    -49.5001E-06     99.9791E-06    -146.914E-12     64.0354E-12     287.770E-12     99.9791E-06     99.9791E-06    -49.3235E-06    -49.6552E-06    -49.4786E-06    -49.5001E-06     99.9791E-06    -146.914E-12     64.0354E-12     287.770E-12     999.793E-03         1.00000         1.00000     1.32392E-03    -895.065E-06         1.00090    -333.477E-03     999.782E-03     286.381E-06     142.487E-06         1.00000    -491.352E-09     214.168E-09     962.442E-09
              64              0.              0.              0.              0.     1.45976E-03    -128.391E-06     29.6779E-06     1.45380E-03     99.9791E-06     99.9791E-06    -49.3235E-06    -49.6552E-06    -49.4786E-06    -49.5001E-06     99.9791E-06     146.914E-12     64.0354E-12    -287.770E-12     99.9791E-06     99.9791E-06    -49.3235E-06    -49.6552E-06    -49.4786E-06    -49.5001E-06     99.9791E-06     146.914E-12     64.0354E-12    -287.770E-12     999.793E-03         1.00000         1.00000     1.32392E-03    -895.065E-06         1.00090    -333.477E-03     999.782E-03     286.381E-06     142.487E-06         1.00000     491.352E-09     214.168E-09    -962.442E-09
              65              0.              0.              0.              0.     1.46177E-03    -128.262E-06     69.2140E-06     1.45448E-03     99.9788E-06     99.9788E-06    -49.3223E-06    -49.6561E-06    -49.4786E-06    -49.4998E-06     99.9788E-06    -160.224E-12    -840.217E-15     276.223E-12     99.9788E-06     99.9788E-06    -49.3223E-06    -49.6561E-06    -49.4786E-06    -49.4998E-06     99.9788E-06    -160.224E-12    -840.217E-15     276.223E-12     999.790E-03         1.00000         1.00000     1.33047E-03    -902.567E-06         1.00090    -333.476E-03     999.779E-03     284.832E-06     143.086E-06         1.00000    -535.867E-09    -2.80852E-09     923.825E-09
              66              0.              0.              0.              0.     1.46449E-03    -129.027E-06     129.027E-06     1.45307E-03     99.9577E-06     99.9577E-06    -49.4743E-06    -49.4826E-06    -49.4784E-06    -49.4784E-06     99.9577E-06    -614.277E-12    -1.12799E-09     1.12799E-09     99.9577E-06     99.9577E-06    -49.4743E-06    -49.4826E-06    -49.4784E-06    -49.4784E-06     99.9577E-06    -614.277E-12    -1.12799E-09     1.12799E-09     999.573E-03         1.00001         1.00001     461.099E-06     405.442E-06     999.601E-03    -333.624E-03     999.573E-03     433.282E-06     433.282E-06         1.00001    -2.05444E-06    -3.77253E-06     3.77253E-06
              67              0.              0.              0.              0.     1.36692E-03    -118.088E-06    -118.088E-06     1.35668E-03     100.045E-06     100.045E-06    -49.5183E-06    -49.5280E-06    -49.5231E-06    -49.5231E-06     100.045E-06    -680.864E-12     1.52719E-09     1.52719E-09     100.045E-06     100.045E-06    -49.5183E-06    -49.5280E-06    -49.5231E-06    -49.5231E-06     100.045E-06    -680.864E-12     1.52719E-09     1.52719E-09         1.00046     999.992E-03     999.992E-03    -433.885E-06    -498.210E-06         1.00049    -333.020E-03         1.00046    -466.034E-06    -466.034E-06     999.992E-03    -2.27714E-06     5.10767E-06     5.10767E-06
              68              0.              0.              0.              0.     1.36263E-03    -118.897E-06    -79.6543E-06     1.35509E-03     100.023E-06     100.023E-06    -49.3224E-06    -49.7008E-06    -49.5230E-06    -49.5003E-06     100.023E-06    -162.034E-12     207.400E-12     514.821E-12     100.023E-06     100.023E-06    -49.3224E-06    -49.7008E-06    -49.5230E-06    -49.5003E-06     100.023E-06    -162.034E-12     207.400E-12     514.821E-12         1.00023     999.999E-03     999.999E-03     1.03440E-03    -1.49671E-03         1.00150    -333.179E-03         1.00022    -307.139E-06    -155.148E-06     999.999E-03    -541.918E-09     693.646E-09     1.72181E-06
              69              0.              0.              0.              0.     1.36120E-03    -118.749E-06    -19.4619E-06     1.35587E-03     100.023E-06     100.023E-06    -49.3234E-06    -49.6997E-06    -49.5230E-06    -49.5000E-06     100.023E-06     178.399E-12     175.723E-12    -248.776E-12     100.023E-06     100.023E-06    -49.3234E-06    -49.6997E-06    -49.5230E-06    -49.5000E-06     100.023E-06     178.399E-12     175.723E-12    -248.776E-12         1.00023     999.996E-03     999.996E-03     1.02644E-03    -1.49065E-03         1.00149    -333.177E-03         1.00022    -309.198E-06    -155.001E-06     999.996E-03     596.651E-09     587.701E-09    -832.027E-09
              70              0.              0.              0.              0.     1.36120E-03    -118.749E-06     19.4619E-06     1.35587E-03     100.023E-06     100.023E-06    -49.3234E-06    -49.6997E-06    -49.5230E-06    -49.5000E-06     100.023E-06    -178.399E-12     175.723E-12     248.776E-12     100.023E-06     100.023E-06    -49.3234E-06    -49.6997E-06    -49.5230E-06    -49.5000E-06     100.023E-06    -178.399E-12     175.723E-12     248.776E-12         1.00023     999.996E-03     999.996E-03     1.02644E-03    -1.49065E-03         1.00149    -333.177E-03         1.00022    -309.198E-06    -155.001E-06     999.996E-03    -596.651E-09     587.701E-09     832.028E-09
              71              0.              0.              0.              0.     1.36263E-03    -118.897E-06     79.6543E-06     1.35509E-03     100.023E-06     100.023E-06    -49.3224E-06    -49.7008E-06    -49.5230E-06    -49.5003E-06     100.023E-06     162.034E-12     207.400E-12    -514.821E-12     100.023E-06     100.023E-06    -49.3224E-06    -49.7008E-06    -49.5230E-06    -49.5003E-06     100.023E-06     162.034E-12     207.400E-12    -514.821E-12         1.00023     999.999E-03     999.999E-03     1.03440E-03    -1.49671E-03         1.00150    -333.179E-03         1.00022    -307.139E-06    -155.148E-06     999.999E-03     541.918E-09     693.646E-09    -1.72181E-06
              72              0.              0.              0.              0.     1.36692E-03    -118.088E-06     118.088E-06     1.35668E-03     100.045E-06     100.045E-06    -49.5183E-06    -49.5280E-06    -49.5231E-06    -49.5231E-06     100.045E-06     680.864E-12     1.52719E-09    -1.52719E-09     100.045E-06     100.045E-06    -49.5183E-06    -49.5280E-06    -49.5231E-06    -49.5231E-06     100.045E-06     680.864E-12     1.52719E-09    -1.52719E-09         1.00046     999.992E-03     999.992E-03    -433.885E-06    -498.210E-06         1.00049    -333.020E-03         1.00046    -466.034E-06    -466.034E-06     999.992E-03     2.27714E-06     5.10767E-06    -5.10767E-06
              73              0.              0.              0.              0.     1.26601E-03    -129.847E-06    -129.847E-06     1.25262E-03     99.9506E-06     99.9506E-06    -49.4692E-06    -49.4804E-06    -49.4748E-06    -49.4748E-06     99.9506E-06     902.914E-12    -1.46802E-09    -1.46802E-09     99.9506E-06     99.9506E-06    -49.4692E-06    -49.4804E-06    -49.4748E-06    -49.4748E-06     99.9506E-06     902.914E-12    -1.46802E-09    -1.46802E-09     999.501E-03         1.00000         1.00000     539.927E-06     465.013E-06     999.539E-03    -333.670E-03     999.501E-03     502.485E-06     502.485E-06         1.00000     3.01978E-06    -4.90977E-06    -4.90977E-06
              74              0.              0.              0.              0.     1.26287E-03    -128.990E-06    -68.4313E-06     1.25440E-03     99.9751E-06     99.9751E-06    -49.2740E-06    -49.7006E-06    -49.4750E-06    -49.4996E-06     99.9751E-06     279.887E-12     81.8332E-12    -98.2667E-12     99.9751E-06     99.9751E-06    -49.2740E-06    -49.7006E-06    -49.4750E-06    -49.4996E-06     99.9751E-06     279.887E-12     81.8332E-12    -98.2667E-12     999.754E-03     999.998E-03     999.998E-03     1.67629E-03    -1.17725E-03         1.00118    -333.499E-03     999.737E-03     332.102E-06     166.966E-06     999.998E-03     936.076E-09     273.689E-09    -328.652E-09
              75              0.              0.              0.              0.     1.26053E-03    -129.158E-06    -30.4437E-06     1.25353E-03     99.9756E-06     99.9756E-06    -49.2752E-06    -49.7000E-06    -49.4748E-06    -49.5003E-06     99.9756E-06    -171.570E-12     80.4405E-12     635.743E-12     99.9756E-06     99.9756E-06    -49.2752E-06    -49.7000E-06    -49.4748E-06    -49.5003E-06     99.9756E-06    -171.570E-12     80.4405E-12     635.743E-12     999.760E-03         1.00000         1.00000     1.67069E-03    -1.17075E-03         1.00117    -333.501E-03     999.742E-03     335.049E-06     164.907E-06         1.00000    -573.814E-09     269.032E-09     2.12623E-06
              76              0.              0.              0.              0.     1.26053E-03    -129.158E-06     30.4437E-06     1.25353E-03     99.9756E-06     99.9756E-06    -49.2752E-06    -49.7000E-06    -49.4748E-06    -49.5003E-06     99.9756E-06     171.570E-12     80.4405E-12    -635.743E-12     99.9756E-06     99.9756E-06    -49.2752E-06    -49.7000E-06    -49.4748E-06    -49.5003E-06     99.9756E-06     171.570E-12     80.4405E-12    -635.743E-12     999.760E-03         1.00000         1.00000     1.67069E-03    -1.17075E-03         1.00117    -333.501E-03     999.742E-03     335.049E-06     164.907E-06         1.00000     573.814E-09     269.032E-09    -2.12623E-06
              77              0.              0.              0.              0.     1.26287E-03    -128.990E-06     68.4313E-06     1.25440E-03     99.9751E-06     99.9751E-06    -49.2740E-06    -49.7006E-06    -49.4750E-06    -49.4996E-06     99.9751E-06    -279.887E-12     81.8332E-12     98.2667E-12     99.9751E-06     99.9751E-06    -49.2740E-06    -49.7006E-06    -49.4750E-06    -49.4996E-06     99.9751E-06    -279.887E-12     81.8332E-12     98.2667E-12     999.754E-03     999.998E-03     999.998E-03     1.67629E-03    -1.17725E-03         1.00118    -333.499E-03     999.737E-03     332.102E-06     166.966E-06     999.998E-03    -936.076E-09     273.689E-09     328.653E-09
              78              0.              0.              0.              0.     1.26601E-03    -129.847E-06     129.847E-06     1.25262E-03     99.9506E-06     99.9506E-06    -49.4692E-06    -49.4804E-06    -49.4748E-06    -49.4748E-06     99.9506E-06    -902.914E-12    -1.46802E-09     1.46802E-09     99.9506E-06     99.9506E-06    -49.4692E-06    -49.4804E-06    -49.4748E-06    -49.4748E-06     99.9506E-06    -902.914E-12    -1.46802E-09     1.46802E-09     999.501E-03         1.00000         1.00000     539.927E-06     465.013E-06     999.539E-03    -333.670E-03     999.501E-03     502.485E-06     502.485E-06         1.00000    -3.01978E-06    -4.90977E-06     4.90977E-06
              79              0.              0.              0.              0.     1.16897E-03    -117.164E-06    -117.164E-06     1.15717E-03     100.053E-06     100.053E-06    -49.5203E-06    -49.5334E-06    -49.5268E-06    -49.5268E-06     100.053E-06    -965.707E-12     2.26384E-09     2.26384E-09     100.053E-06     100.053E-06    -49.5203E-06    -49.5334E-06    -49.5268E-06    -49.5268E-06     100.053E-06    -965.707E-12     2.26384E-09     2.26384E-09         1.00053     999.986E-03     999.986E-03    -501.567E-06    -588.987E-06         1.00057    -332.965E-03         1.00053    -545.258E-06    -545.258E-06     999.986E-03    -3.22979E-06     7.57138E-06     7.57138E-06
              80              0.              0.              0.              0.     1.16400E-03    -118.076E-06    -80.5340E-06     1.15519E-03     100.026E-06     100.026E-06    -49.2741E-06    -49.7529E-06    -49.5268E-06    -49.5002E-06     100.026E-06     26.7134E-12     614.997E-12     883.893E-12     100.026E-06     100.026E-06    -49.2741E-06    -49.7529E-06    -49.5268E-06    -49.5002E-06     100.026E-06     26.7134E-12     614.997E-12     883.893E-12         1.00028     999.994E-03     999.994E-03     1.32788E-03    -1.87482E-03         1.00187    -333.149E-03         1.00025    -362.334E-06    -184.584E-06     999.994E-03     89.3428E-09     2.05685E-06     2.95616E-06
              81              0.              0.              0.              0.     1.16230E-03    -117.884E-06    -18.6030E-06     1.15616E-03     100.027E-06     100.027E-06    -49.2749E-06    -49.7523E-06    -49.5271E-06    -49.5000E-06     100.027E-06     509.567E-12     1.10156E-09    -248.030E-12     100.027E-06     100.027E-06    -49.2749E-06    -49.7523E-06    -49.5271E-06    -49.5000E-06     100.027E-06     509.567E-12     1.10156E-09    -248.030E-12         1.00028     999.993E-03     999.993E-03     1.32149E-03    -1.87187E-03         1.00187    -333.148E-03         1.00025    -366.063E-06    -184.300E-06     999.993E-03     1.70424E-06     3.68414E-06    -829.531E-09
              82              0.              0.              0.              0.     1.16230E-03    -117.884E-06     18.6030E-06     1.15616E-03     100.027E-06     100.027E-06    -49.2749E-06    -49.7523E-06    -49.5271E-06    -49.5000E-06     100.027E-06    -509.567E-12     1.10156E-09     248.030E-12     100.027E-06     100.027E-06    -49.2749E-06    -49.7523E-06    -49.5271E-06    -49.5000E-06     100.027E-06    -509.567E-12     1.10156E-09     248.030E-12         1.00028     999.993E-03     999.993E-03     1.32149E-03    -1.87187E-03         1.00187    -333.148E-03         1.00025    -366.063E-06    -184.300E-06     999.993E-03    -1.70424E-06     3.68414E-06     829.531E-09
              83              0.              0.              0.              0.     1.16400E-03    -118.076E-06     80.5340E-06     1.15519E-03     100.026E-06     100.026E-06    -49.2741E-06    -49.7529E-06    -49.5268E-06    -49.5002E-06     100.026E-06    -26.7134E-12     614.997E-12    -883.893E-12     100.026E-06     100.026E-06    -49.2741E-06    -49.7529E-06    -49.5268E-06    -49.5002E-06     100.026E-06    -26.7134E-12     614.997E-12    -883.893E-12         1.00028     999.994E-03     999.994E-03     1.32788E-03    -1.87482E-03         1.00187    -333.149E-03         1.00025    -362.334E-06    -184.584E-06     999.994E-03    -89.3428E-09     2.05685E-06    -2.95616E-06
              84              0.              0.              0.              0.     1.16897E-03    -117.164E-06     117.164E-06     1.15717E-03     100.053E-06     100.053E-06    -49.5203E-06    -49.5334E-06    -49.5268E-06    -49.5268E-06     100.053E-06     965.707E-12     2.26384E-09    -2.26384E-09     100.053E-06     100.053E-06    -49.5203E-06    -49.5334E-06    -49.5268E-06    -49.5268E-06     100.053E-06     965.707E-12     2.26384E-09    -2.26384E-09         1.00053     999.986E-03     999.986E-03    -501.567E-06    -588.987E-06         1.00057    -332.965E-03         1.00053    -545.258E-06    -545.258E-06     999.986E-03     3.22979E-06     7.57138E-06    -7.57138E-06
              85              0.              0.              0.              0.     1.06825E-03    -130.881E-06    -130.881E-06     1.05210E-03     99.9416E-06     99.9416E-06    -49.4620E-06    -49.4784E-06    -49.4702E-06    -49.4702E-06     99.9416E-06     2.27687E-09    -2.46034E-09    -2.46034E-09     99.9416E-06     99.9416E-06    -49.4620E-06    -49.4784E-06    -49.4702E-06    -49.4702E-06     99.9416E-06     2.27687E-09    -2.46034E-09    -2.46034E-09     999.410E-03         1.00000         1.00000     645.297E-06     536.197E-06     999.464E-03    -333.727E-03     999.410E-03     590.770E-06     590.770E-06         1.00000     7.61496E-06    -8.22855E-06    -8.22855E-06
              86              0.              0.              0.              0.     1.06441E-03    -129.911E-06    -67.4475E-06     1.05429E-03     99.9700E-06     99.9700E-06    -49.2167E-06    -49.7527E-06    -49.4702E-06    -49.4992E-06     99.9700E-06     791.553E-12    -452.011E-12    -1.85284E-09     99.9700E-06     99.9700E-06    -49.2167E-06    -49.7527E-06    -49.4702E-06    -49.4992E-06     99.9700E-06     791.553E-12    -452.011E-12    -1.85284E-09     999.707E-03     999.998E-03     999.998E-03     2.09367E-03    -1.49203E-03         1.00149    -333.533E-03     999.678E-03     398.028E-06     203.651E-06     999.998E-03     2.64733E-06    -1.51174E-06    -6.19678E-06
              87              0.              0.              0.              0.     1.06169E-03    -130.132E-06    -31.4021E-06     1.05321E-03     99.9694E-06     99.9694E-06    -49.2174E-06    -49.7515E-06    -49.4697E-06    -49.4992E-06     99.9694E-06    -346.884E-12    -1.34196E-09    -622.669E-12     99.9694E-06     99.9694E-06    -49.2174E-06    -49.7515E-06    -49.4697E-06    -49.4992E-06     99.9694E-06    -346.884E-12    -1.34196E-09    -622.669E-12     999.701E-03    1000.000E-03    1000.000E-03     2.09461E-03    -1.47791E-03         1.00148    -333.539E-03     999.673E-03     407.043E-06     209.679E-06    1000.000E-03    -1.16015E-06    -4.48815E-06    -2.08251E-06
              88              0.              0.              0.              0.     1.06169E-03    -130.132E-06     31.4021E-06     1.05321E-03     99.9694E-06     99.9694E-06    -49.2174E-06    -49.7515E-06    -49.4697E-06    -49.4992E-06     99.9694E-06     346.884E-12    -1.34196E-09     622.669E-12     99.9694E-06     99.9694E-06    -49.2174E-06    -49.7515E-06    -49.4697E-06    -49.4992E-06     99.9694E-06     346.884E-12    -1.34196E-09     622.669E-12     999.701E-03    1000.000E-03    1000.000E-03     2.09461E-03    -1.47791E-03         1.00148    -333.539E-03     999.673E-03     407.043E-06     209.679E-06    1000.000E-03     1.16015E-06    -4.48815E-06     2.08251E-06
              89              0.              0.              0.              0.     1.06441E-03    -129.911E-06     67.4475E-06     1.05429E-03     99.9700E-06     99.9700E-06    -49.2167E-06    -49.7527E-06    -49.4702E-06    -49.4992E-06     99.9700E-06    -791.553E-12    -452.011E-12     1.85284E-09     99.9700E-06     99.9700E-06    -49.2167E-06    -49.7527E-06    -49.4702E-06    -49.4992E-06     99.9700E-06    -791.553E-12    -452.011E-12     1.85284E-09     999.707E-03     999.998E-03     999.998E-03     2.09367E-03    -1.49203E-03         1.00149    -333.533E-03     999.678E-03     398.028E-06     203.651E-06     999.998E-03    -2.64733E-06    -1.51174E-06     6.19678E-06
              90              0.              0.              0.              0.     1.06825E-03    -130.881E-06     130.881E-06     1.05210E-03     99.9416E-06     99.9416E-06    -49.4620E-06    -49.4784E-06    -49.4702E-06    -49.4702E-06     99.9416E-06    -2.27687E-09    -2.46034E-09     2.46034E-09     99.9416E-06     99.9416E-06    -49.4620E-06    -49.4784E-06    -49.4702E-06    -49.4702E-06     99.9416E-06    -2.27687E-09    -2.46034E-09     2.46034E-09     999.410E-03         1.00000         1.00000     645.297E-06     536.197E-06     999.464E-03    -333.727E-03     999.410E-03     590.770E-06     590.770E-06         1.00000    -7.61496E-06    -8.22855E-06     8.22855E-06
              91              0.              0.              0.              0.     971.692E-06    -116.004E-06    -116.004E-06     957.743E-06     100.065E-06     100.065E-06    -49.5221E-06    -49.5439E-06    -49.5330E-06    -49.5330E-06     100.065E-06    -3.15046E-09    -5.40073E-09    -5.40073E-09     100.065E-06     100.065E-06    -49.5221E-06    -49.5439E-06    -49.5330E-06    -49.5330E-06     100.065E-06    -3.15046E-09    -5.40073E-09    -5.40073E-09         1.00065         1.00004         1.00004    -543.459E-06    -688.857E-06         1.00073    -332.935E-03         1.00065    -616.137E-06    -616.137E-06         1.00004    -10.5367E-06    -18.0626E-06    -18.0626E-06
              92              0.              0.              0.              0.     965.907E-06    -117.040E-06    -81.6239E-06     955.309E-06     100.031E-06     100.031E-06    -49.2149E-06    -49.8172E-06    -49.5333E-06    -49.4988E-06     100.031E-06    -313.699E-12    -7.46508E-09    -5.28826E-09     100.031E-06     100.031E-06    -49.2149E-06    -49.8172E-06    -49.5333E-06    -49.4988E-06     100.031E-06    -313.699E-12    -7.46508E-09    -5.28826E-09         1.00033         1.00002         1.00002     1.71660E-03    -2.31227E-03         1.00233    -333.141E-03         1.00029    -413.099E-06    -182.534E-06         1.00002    -1.04916E-06    -24.9668E-06    -17.6865E-06
              93              0.              0.              0.              0.     963.765E-06    -116.786E-06    -17.5348E-06     956.502E-06     100.030E-06     100.030E-06    -49.2144E-06    -49.8160E-06    -49.5342E-06    -49.4962E-06     100.030E-06     1.26153E-09    -4.89637E-09    -2.58790E-09     100.030E-06     100.030E-06    -49.2144E-06    -49.8160E-06    -49.5342E-06    -49.4962E-06     100.030E-06     1.26153E-09    -4.89637E-09    -2.58790E-09         1.00031         1.00000         1.00000     1.71082E-03    -2.31333E-03         1.00231    -333.133E-03         1.00028    -428.324E-06    -174.151E-06         1.00000     4.21916E-06    -16.3758E-06    -8.65518E-06
              94              0.              0.              0.              0.     963.765E-06    -116.786E-06     17.5348E-06     956.502E-06     100.030E-06     100.030E-06    -49.2144E-06    -49.8160E-06    -49.5342E-06    -49.4962E-06     100.030E-06    -1.26153E-09    -4.89637E-09     2.58790E-09     100.030E-06     100.030E-06    -49.2144E-06    -49.8160E-06    -49.5342E-06    -49.4962E-06     100.030E-06    -1.26153E-09    -4.89637E-09     2.58790E-09         1.00031         1.00000         1.00000     1.71082E-03    -2.31333E-03         1.00231    -333.133E-03         1.00028    -428.324E-06    -174.151E-06         1.00000    -4.21916E-06    -16.3758E-06     8.65518E-06
              95              0.              0.              0.              0.     965.907E-06    -117.040E-06     81.6239E-06     955.309E-06     100.031E-06     100.031E-06    -49.2149E-06    -49.8172E-06    -49.5333E-06    -49.4988E-06     100.031E-06     313.699E-12    -7.46508E-09     5.28826E-09     100.031E-06     100.031E-06    -49.2149E-06    -49.8172E-06    -49.5333E-06    -49.4988E-06     100.031E-06     313.699E-12    -7.46508E-09     5.28826E-09         1.00033         1.00002         1.00002     1.71660E-03    -2.31227E-03         1.00233    -333.141E-03         1.00029    -413.099E-06    -182.534E-06         1.00002     1.04916E-06    -24.9668E-06     17.6865E-06
              96              0.              0.              0.              0.     971.692E-06    -116.004E-06     116.004E-06     957.743E-06     100.065E-06     100.065E-06    -49.5221E-06    -49.5439E-06    -49.5330E-06    -49.5330E-06     100.065E-06     3.15046E-09    -5.40073E-09     5.40073E-09     100.065E-06     100.065E-06    -49.5221E-06    -49.5439E-06    -49.5330E-06    -49.5330E-06     100.065E-06     3.15046E-09    -5.40073E-09     5.40073E-09         1.00065         1.00004         1.00004    -543.459E-06    -688.857E-06         1.00073    -332.935E-03         1.00065    -616.137E-06    -616.137E-06         1.00004     10.5367E-06    -18.0626E-06     18.0626E-06
              97              0.              0.              0.              0.     871.732E-06    -132.163E-06    -132.163E-06     851.459E-06     99.9498E-06     99.9498E-06    -49.4592E-06    -49.4891E-06    -49.4742E-06    -49.4742E-06     99.9498E-06     5.05641E-09    -10.4185E-09    -10.4185E-09     99.9498E-06     99.9498E-06    -49.4592E-06    -49.4891E-06    -49.4742E-06    -49.4742E-06     99.9498E-06     5.05641E-09    -10.4185E-09    -10.4185E-09     999.492E-03         1.00016         1.00016     768.945E-06     568.664E-06     999.592E-03    -333.833E-03     999.492E-03     668.831E-06     668.831E-06         1.00016     16.9111E-06    -34.8444E-06    -34.8444E-06
              98              0.              0.              0.              0.     866.679E-06    -131.049E-06    -66.2201E-06     854.150E-06     99.9761E-06     99.9761E-06    -49.1522E-06    -49.8231E-06    -49.4727E-06    -49.5026E-06     99.9761E-06    -1.15344E-09    -8.09296E-09    -24.5123E-09     99.9761E-06     99.9761E-06    -49.1522E-06    -49.8231E-06    -49.4727E-06    -49.5026E-06     99.9761E-06    -1.15344E-09    -8.09296E-09    -24.5123E-09     999.772E-03         1.00012         1.00012     2.60758E-03    -1.87971E-03         1.00200    -333.616E-03     999.728E-03     463.941E-06     263.979E-06         1.00012    -3.85766E-06    -27.0668E-06    -81.9811E-06
              99              0.              0.              0.              0.     863.515E-06    -131.351E-06    -32.5805E-06     852.844E-06     99.9567E-06     99.9567E-06    -49.1430E-06    -49.8129E-06    -49.4700E-06    -49.4858E-06     99.9567E-06    -3.68165E-09    -14.8193E-09    -19.3031E-09     99.9567E-06     99.9567E-06    -49.1430E-06    -49.8129E-06    -49.4700E-06    -49.4858E-06     99.9567E-06    -3.68165E-09    -14.8193E-09    -19.3031E-09     999.577E-03         1.00000         1.00000     2.68161E-03    -1.79962E-03         1.00180    -333.629E-03     999.534E-03     493.986E-06     388.067E-06         1.00000    -12.3132E-06    -49.5629E-06    -64.5589E-06
             100              0.              0.              0.              0.     863.515E-06    -131.351E-06     32.5805E-06     852.844E-06     99.9567E-06     99.9567E-06    -49.1430E-06    -49.8129E-06    -49.4700E-06    -49.4858E-06     99.9567E-06     3.68165E-09    -14.8193E-09     19.3031E-09     99.9567E-06     99.9567E-06    -49.1430E-06    -49.8129E-06    -49.4700E-06    -49.4858E-06     99.9567E-06     3.68165E-09    -14.8193E-09     19.3031E-09     999.577E-03         1.00000         1.00000     2.68161E-03    -1.79962E-03         1.00180    -333.629E-03     999.534E-03     493.986E-06     388.067E-06         1.00000     12.3132E-06    -49.5629E-06     64.5589E-06
             101              0.              0.              0.              0.     866.679E-06    -131.049E-06     66.2201E-06     854.150E-06     99.9761E-06     99.9761E-06    -49.1522E-06    -49.8231E-06    -49.4727E-06    -49.5026E-06     99.9761E-06     1.15344E-09    -8.09296E-09     24.5123E-09     99.9761E-06     99.9761E-06    -49.1522E-06    -49.8231E-06    -49.4727E-06    -49.5026E-06     99.9761E-06     1.15344E-09    -8.09296E-09     24.5123E-09     999.772E-03         1.00012         1.00012     2.60758E-03    -1.87971E-03         1.00200    -333.616E-03     999.728E-03     463.941E-06     263.979E-06         1.00012     3.85766E-06    -27.0668E-06     81.9811E-06
             102              0.              0.              0.              0.     871.732E-06    -132.163E-06     132.163E-06     851.459E-06     99.9498E-06     99.9498E-06    -49.4592E-06    -49.4891E-06    -49.4742E-06    -49.4742E-06     99.9498E-06    -5.05641E-09    -10.4185E-09     10.4185E-09     99.9498E-06     99.9498E-06    -49.4592E-06    -49.4891E-06    -49.4742E-06    -49.4742E-06     99.9498E-06    -5.05641E-09    -10.4185E-09     10.4185E-09     999.492E-03         1.00016         1.00016     768.945E-06     568.664E-06     999.592E-03    -333.833E-03     999.492E-03     668.831E-06     668.831E-06         1.00016    -16.9111E-06    -34.8444E-06     34.8444E-06
             103              0.              0.              0.              0.     775.499E-06    -114.569E-06    -114.569E-06     758.384E-06     100.108E-06     100.108E-06    -49.5261E-06    -49.5827E-06    -49.5544E-06    -49.5544E-06     100.108E-06    -21.6550E-09    -54.8141E-09    -54.8141E-09     100.108E-06     100.108E-06    -49.5261E-06    -49.5827E-06    -49.5544E-06    -49.5544E-06     100.108E-06    -21.6550E-09    -54.8141E-09    -54.8141E-09         1.00109         1.00058         1.00058    -322.529E-06    -701.496E-06         1.00128    -333.184E-03         1.00109    -511.979E-06    -511.979E-06         1.00058    -72.4248E-06    -183.325E-06    -183.325E-06
             104              0.              0.              0.              0.     768.749E-06    -115.767E-06    -82.9348E-06     755.444E-06     100.049E-06     100.049E-06    -49.1401E-06    -49.9091E-06    -49.5521E-06    -49.4971E-06     100.049E-06    -15.9986E-09    -64.3090E-09    -41.6790E-09     100.049E-06     100.049E-06    -49.1401E-06    -49.9091E-06    -49.5521E-06    -49.4971E-06     100.049E-06    -15.9986E-09    -64.3090E-09    -41.6790E-09         1.00051         1.00036         1.00036     2.44052E-03    -2.70385E-03         1.00307    -333.366E-03         1.00046    -315.471E-06     52.3028E-06         1.00036    -53.5070E-06    -215.080E-06    -139.395E-06
             105              0.              0.              0.              0.     765.872E-06    -115.376E-06    -16.1901E-06     756.959E-06     100.032E-06     100.032E-06    -49.1389E-06    -49.8929E-06    -49.5500E-06    -49.4818E-06     100.032E-06    -5.17109E-09    -65.2705E-09    -14.2720E-09     100.032E-06     100.032E-06    -49.1389E-06    -49.8929E-06    -49.5500E-06    -49.4818E-06     100.032E-06    -5.17109E-09    -65.2705E-09    -14.2720E-09         1.00034         1.00015         1.00015     2.34936E-03    -2.69387E-03         1.00284    -333.267E-03         1.00028    -400.223E-06     55.8605E-06         1.00015    -17.2946E-06    -218.296E-06    -47.7325E-06
             106              0.              0.              0.              0.     765.872E-06    -115.376E-06     16.1901E-06     756.959E-06     100.032E-06     100.032E-06    -49.1389E-06    -49.8929E-06    -49.5500E-06    -49.4818E-06     100.032E-06     5.17109E-09    -65.2705E-09     14.2720E-09     100.032E-06     100.032E-06    -49.1389E-06    -49.8929E-06    -49.5500E-06    -49.4818E-06     100.032E-06     5.17109E-09    -65.2705E-09     14.2720E-09         1.00034         1.00015         1.00015     2.34936E-03    -2.69387E-03         1.00284    -333.267E-03         1.00028    -400.223E-06     55.8605E-06         1.00015     17.2946E-06    -218.296E-06     47.7325E-06
             107              0.              0.              0.              0.     768.749E-06    -115.767E-06     82.9348E-06     755.444E-06     100.049E-06     100.049E-06    -49.1401E-06    -49.9091E-06    -49.5521E-06    -49.4971E-06     100.049E-06     15.9986E-09    -64.3090E-09     41.6790E-09     100.049E-06     100.049E-06    -49.1401E-06    -49.9091E-06    -49.5521E-06    -49.4971E-06     100.049E-06     15.9986E-09    -64.3090E-09     41.6790E-09         1.00051         1.00036         1.00036     2.44052E-03    -2.70385E-03         1.00307    -333.366E-03         1.00046    -315.471E-06     52.3028E-06         1.00036     53.5070E-06    -215.080E-06     139.395E-06
             108              0.              0.              0.              0.     775.499E-06    -114.569E-06     114.569E-06     758.384E-06     100.108E-06     100.108E-06    -49.5261E-06    -49.5827E-06    -49.5544E-06    -49.5544E-06     100.108E-06     21.6550E-09    -54.8141E-09     54.8141E-09     100.108E-06     100.108E-06    -49.5261E-06    -49.5827E-06    -49.5544E-06    -49.5544E-06     100.108E-06     21.6550E-09    -54.8141E-09     54.8141E-09         1.00109         1.00058         1.00058    -322.529E-06    -701.496E-06         1.00128    -333.184E-03         1.00109    -511.979E-06    -511.979E-06         1.00058     72.4248E-06    -183.325E-06     183.325E-06
             109              0.              0.              0.              0.     677.448E-06    -133.756E-06    -133.756E-06     650.503E-06     100.048E-06     100.048E-06    -49.4881E-06    -49.5575E-06    -49.5228E-06    -49.5228E-06     100.048E-06    -8.96728E-09     3.00954E-09     3.00954E-09     100.048E-06     100.048E-06    -49.4881E-06    -49.5575E-06    -49.5228E-06    -49.5228E-06     100.048E-06    -8.96728E-09     3.00954E-09     3.00954E-09         1.00047         1.00094         1.00094     704.830E-06     240.994E-06         1.00070    -333.963E-03         1.00047     472.945E-06     472.945E-06         1.00094    -29.9909E-06     10.0653E-06     10.0653E-06
             110              0.              0.              0.              0.     670.273E-06    -132.409E-06    -64.7284E-06     653.869E-06     100.057E-06     100.057E-06    -49.1006E-06    -49.9558E-06    -49.5161E-06    -49.5402E-06     100.057E-06    -29.0118E-09     7.88744E-09    -40.1212E-09     100.057E-06     100.057E-06    -49.1006E-06    -49.9558E-06    -49.5161E-06    -49.5402E-06     100.057E-06    -29.0118E-09     7.88744E-09    -40.1212E-09         1.00059         1.00066         1.00066     2.94550E-03    -2.77524E-03         1.00343    -333.609E-03         1.00053     165.894E-06     4.72355E-06         1.00066    -97.0295E-06     26.3794E-06    -134.184E-06
             111              0.              0.              0.              0.     666.557E-06    -132.845E-06    -34.0714E-06     652.296E-06     99.9984E-06     99.9984E-06    -49.0645E-06    -49.9331E-06    -49.5107E-06    -49.4868E-06     99.9983E-06    -24.5282E-09    -13.6221E-09    -41.6259E-09     99.9984E-06     99.9984E-06    -49.0645E-06    -49.9331E-06    -49.5107E-06    -49.4868E-06     99.9983E-06    -24.5282E-09    -13.6221E-09    -41.6259E-09         1.00000         1.00024         1.00024     3.16287E-03    -2.64726E-03         1.00289    -333.585E-03     999.936E-03     177.913E-06     338.033E-06         1.00024    -82.0340E-06    -45.5587E-06    -139.217E-06
             112              0.              0.              0.              0.     666.557E-06    -132.845E-06     34.0714E-06     652.296E-06     99.9984E-06     99.9984E-06    -49.0645E-06    -49.9331E-06    -49.5107E-06    -49.4868E-06     99.9983E-06     24.5282E-09    -13.6221E-09     41.6259E-09     99.9984E-06     99.9984E-06    -49.0645E-06    -49.9331E-06    -49.5107E-06    -49.4868E-06     99.9983E-06     24.5282E-09    -13.6221E-09     41.6259E-09         1.00000         1.00024         1.00024     3.16287E-03    -2.64726E-03         1.00289    -333.585E-03     999.936E-03     177.913E-06     338.033E-06         1.00024     82.0340E-06    -45.5587E-06     139.217E-06
             113              0.              0.              0.              0.     670.273E-06    -132.409E-06     64.7284E-06     653.869E-06     100.057E-06     100.057E-06    -49.1006E-06    -49.9558E-06    -49.5161E-06    -49.5402E-06     100.057E-06     29.0118E-09     7.88744E-09     40.1212E-09     100.057E-06     100.057E-06    -49.1006E-06    -49.9558E-06    -49.5161E-06    -49.5402E-06     100.057E-06     29.0118E-09     7.88744E-09     40.1212E-09         1.00059         1.00066         1.00066     2.94550E-03    -2.77524E-03         1.00343    -333.609E-03         1.00053     165.894E-06     4.72355E-06         1.00066     97.0295E-06     26.3794E-06     134.184E-06
             114              0.              0.              0.              0.     677.448E-06    -133.756E-06     133.756E-06     650.503E-06     100.048E-06     100.048E-06    -49.4881E-06    -49.5575E-06    -49.5228E-06    -49.5228E-06     100.048E-06     8.96728E-09     3.00954E-09    -3.00954E-09     100.048E-06     100.048E-06    -49.4881E-06    -49.5575E-06    -49.5228E-06    -49.5228E-06     100.048E-06     8.96728E-09     3.00954E-09    -3.00954E-09         1.00047         1.00094         1.00094     704.830E-06     240.994E-06         1.00070    -333.963E-03         1.00047     472.945E-06     472.945E-06         1.00094     29.9909E-06     10.0653E-06    -10.0653E-06
             115              0.              0.              0.              0.     581.226E-06    -113.114E-06    -113.114E-06     558.779E-06     100.077E-06     100.077E-06    -49.4707E-06    -49.6075E-06    -49.5390E-06    -49.5390E-06     100.077E-06    -76.3982E-09     108.184E-09     108.184E-09     100.077E-06     100.077E-06    -49.4707E-06    -49.6075E-06    -49.5390E-06    -49.5390E-06     100.077E-06    -76.3982E-09     108.184E-09     108.184E-09         1.00078         1.00019         1.00019    -134.503E-06    -1.04963E-03         1.00123    -333.000E-03         1.00078    -591.910E-06    -591.910E-06         1.00018    -255.512E-06     361.819E-06     361.819E-06
             116              0.              0.              0.              0.     573.450E-06    -114.528E-06    -84.6482E-06     555.485E-06     100.072E-06     100.072E-06    -49.0888E-06    -49.9833E-06    -49.5266E-06    -49.5453E-06     100.071E-06    -80.0524E-09     57.2973E-09     173.054E-09     100.072E-06     100.072E-06    -49.0888E-06    -49.9833E-06    -49.5266E-06    -49.5453E-06     100.071E-06    -80.0524E-09     57.2973E-09     173.054E-09         1.00074         1.00036         1.00036     2.63120E-03    -3.35241E-03         1.00371    -333.213E-03         1.00067    -297.431E-06    -422.147E-06         1.00036    -267.734E-06     191.630E-06     578.775E-06
             117              0.              0.              0.              0.     569.165E-06    -113.845E-06    -14.5059E-06     557.474E-06     100.146E-06     100.146E-06    -49.0608E-06    -50.0867E-06    -49.5065E-06    -49.6408E-06     100.146E-06    -41.8533E-09     9.51617E-09     118.962E-09     100.146E-06     100.146E-06    -49.0608E-06    -50.0867E-06    -49.5065E-06    -49.6408E-06     100.146E-06    -41.8533E-09     9.51617E-09     118.962E-09         1.00150         1.00049         1.00049     2.45293E-03    -4.40970E-03         1.00490    -332.845E-03         1.00142    -528.216E-06    -1.42705E-03         1.00049    -139.978E-06     31.8267E-06     397.866E-06
             118              0.              0.              0.              0.     569.165E-06    -113.845E-06     14.5059E-06     557.474E-06     100.146E-06     100.146E-06    -49.0608E-06    -50.0867E-06    -49.5065E-06    -49.6408E-06     100.146E-06     41.8533E-09     9.51617E-09    -118.962E-09     100.146E-06     100.146E-06    -49.0608E-06    -50.0867E-06    -49.5065E-06    -49.6408E-06     100.146E-06     41.8533E-09     9.51617E-09    -118.962E-09         1.00150         1.00049         1.00049     2.45293E-03    -4.40970E-03         1.00490    -332.845E-03         1.00142    -528.216E-06    -1.42705E-03         1.00049     139.978E-06     31.8267E-06    -397.866E-06
             119              0.              0.              0.              0.     573.450E-06    -114.528E-06     84.6482E-06     555.485E-06     100.072E-06     100.072E-06    -49.0888E-06    -49.9833E-06    -49.5266E-06    -49.5453E-06     100.071E-06     80.0524E-09     57.2973E-09    -173.054E-09     100.072E-06     100.072E-06    -49.0888E-06    -49.9833E-06    -49.5266E-06    -49.5453E-06     100.071E-06     80.0524E-09     57.2973E-09    -173.054E-09         1.00074         1.00036         1.00036     2.63120E-03    -3.35241E-03         1.00371    -333.213E-03         1.00067    -297.431E-06    -422.147E-06         1.00036     267.734E-06     191.630E-06    -578.775E-06
             120              0.              0.              0.              0.     581.226E-06    -113.114E-06     113.114E-06     558.779E-06     100.077E-06     100.077E-06    -49.4707E-06    -49.6075E-06    -49.5390E-06    -49.5390E-06     100.077E-06     76.3982E-09     108.184E-09    -108.184E-09     100.077E-06     100.077E-06    -49.4707E-06    -49.6075E-06    -49.5390E-06    -49.5390E-06     100.077E-06     76.3982E-09     108.184E-09    -108.184E-09         1.00078         1.00019         1.00019    -134.503E-06    -1.04963E-03         1.00123    -333.000E-03         1.00078    -591.910E-06    -591.910E-06         1.00018     255.512E-06     361.819E-06    -361.819E-06
             121              0.              0.              0.              0.     489.283E-06    -135.934E-06    -135.934E-06     449.936E-06     99.5917E-06     99.5917E-06    -49.2075E-06    -49.3908E-06    -49.2980E-06    -49.2980E-06     99.5894E-06    -27.7022E-09     656.063E-09     656.063E-09     99.5917E-06     99.5917E-06    -49.2075E-06    -49.3908E-06    -49.2980E-06    -49.2980E-06     99.5894E-06    -27.7022E-09     656.063E-09     656.063E-09     995.926E-03     995.089E-03     995.089E-03    -223.406E-06    -1.44904E-03     996.538E-03    -331.139E-03     995.924E-03    -828.452E-06    -828.452E-06     995.073E-03    -92.6495E-06     2.19419E-03     2.19419E-03
             122              0.              0.              0.              0.     477.174E-06    -134.263E-06    -63.6990E-06     453.443E-06     99.9114E-06     99.9114E-06    -48.8758E-06    -50.0451E-06    -49.3234E-06    -49.5927E-06     99.9066E-06     8.14345E-09     718.884E-09     1.05652E-06     99.9114E-06     99.9114E-06    -48.8758E-06    -50.0451E-06    -49.3234E-06    -49.5927E-06     99.9066E-06     8.14345E-09     718.884E-09     1.05652E-06     999.184E-03     996.258E-03     996.258E-03     1.02541E-03    -6.79583E-03         1.00305    -330.162E-03     999.060E-03    -1.96842E-03    -3.76981E-03     996.226E-03     27.2356E-06     2.40429E-03     3.53350E-03
             123              0.              0.              0.              0.     472.325E-06    -134.804E-06    -36.3284E-06     451.220E-06     100.538E-06     100.538E-06    -48.9772E-06    -50.5701E-06    -49.3785E-06    -50.1641E-06     100.533E-06     21.9945E-09     820.582E-09     728.485E-09     100.538E-06     100.538E-06    -48.9772E-06    -50.5701E-06    -49.3785E-06    -50.1641E-06     100.533E-06     21.9945E-09     820.582E-09     728.485E-09         1.00548         1.00059         1.00059     484.099E-06    -10.1705E-03         1.01076    -330.300E-03         1.00533    -2.19969E-03    -7.45480E-03         1.00056     73.5604E-06     2.74442E-03     2.43640E-03
             124              0.              0.              0.              0.     472.325E-06    -134.804E-06     36.3284E-06     451.220E-06     100.538E-06     100.538E-06    -48.9772E-06    -50.5701E-06    -49.3785E-06    -50.1641E-06     100.533E-06    -21.9945E-09     820.582E-09    -728.485E-09     100.538E-06     100.538E-06    -48.9772E-06    -50.5701E-06    -49.3785E-06    -50.1641E-06     100.533E-06    -21.9945E-09     820.582E-09    -728.485E-09         1.00548         1.00059         1.00059     484.099E-06    -10.1705E-03         1.01076    -330.300E-03         1.00533    -2.19969E-03    -7.45480E-03         1.00056    -73.5604E-06     2.74442E-03    -2.43640E-03
             125              0.              0.              0.              0.     477.174E-06    -134.263E-06     63.6990E-06     453.443E-06     99.9114E-06     99.9114E-06    -48.8758E-06    -50.0451E-06    -49.3234E-06    -49.5927E-06     99.9066E-06    -8.14345E-09     718.884E-09    -1.05652E-06     99.9114E-06     99.9114E-06    -48.8758E-06    -50.0451E-06    -49.3234E-06    -49.5927E-06     99.9066E-06    -8.14345E-09     718.884E-09    -1.05652E-06     999.184E-03     996.258E-03     996.258E-03     1.02541E-03    -6.79583E-03         1.00305    -330.162E-03     999.060E-03    -1.96842E-03    -3.76981E-03     996.226E-03    -27.2356E-06     2.40429E-03    -3.53350E-03
             126              0.              0.              0.              0.     489.283E-06    -135.934E-06     135.934E-06     449.936E-06     99.5917E-06     99.5917E-06    -49.2075E-06    -49.3908E-06    -49.2980E-06    -49.2980E-06     99.5894E-06     27.7022E-09     656.063E-09    -656.063E-09     99.5917E-06     99.5917E-06    -49.2075E-06    -49.3908E-06    -49.2980E-06    -49.2980E-06     99.5894E-06     27.7022E-09     656.063E-09    -656.063E-09     995.926E-03     995.089E-03     995.089E-03    -223.406E-06    -1.44904E-03     996.538E-03    -331.139E-03     995.924E-03    -828.452E-06    -828.452E-06     995.073E-03     92.6495E-06     2.19419E-03    -2.19419E-03
             127              0.              0.              0.              0.     393.147E-06    -112.686E-06    -112.686E-06     359.401E-06     97.9055E-06     97.9055E-06    -48.3172E-06    -48.6349E-06    -48.4537E-06    -48.4537E-06     97.8609E-06     362.403E-09     3.06974E-06     3.06974E-06     97.9055E-06     97.9055E-06    -48.3172E-06    -48.6349E-06    -48.4537E-06    -48.4537E-06     97.8609E-06     362.403E-09     3.06974E-06     3.06974E-06     979.143E-03     970.590E-03     970.590E-03    -7.48865E-03    -9.61390E-03     980.204E-03    -317.829E-03     979.136E-03    -8.40185E-03    -8.40185E-03     970.291E-03     1.21205E-03     10.2667E-03     10.2667E-03
             128              0.              0.              0.              0.     384.798E-06    -114.525E-06    -88.3959E-06     356.567E-06     99.2336E-06     99.2336E-06    -48.4943E-06    -49.7771E-06    -48.5699E-06    -49.6610E-06     99.1931E-06     402.446E-09     3.09465E-06     3.08173E-06     99.2336E-06     99.2336E-06    -48.4943E-06    -49.7771E-06    -48.5699E-06    -49.6610E-06     99.1931E-06     402.446E-09     3.09465E-06     3.08173E-06     992.481E-03     982.382E-03     982.382E-03    -5.76462E-03    -14.3451E-03     996.727E-03    -320.757E-03     992.347E-03    -6.27017E-03    -13.5687E-03     982.111E-03     1.34597E-03     10.3500E-03     10.3068E-03
             129              0.              0.              0.              0.     374.254E-06    -114.615E-06    -13.7851E-06     356.005E-06     100.820E-06     100.820E-06    -48.6758E-06    -51.1762E-06    -48.6718E-06    -51.1507E-06     100.791E-06     221.244E-09     3.20852E-06     1.54685E-06     100.820E-06     100.820E-06    -48.6758E-06    -51.1762E-06    -48.6718E-06    -51.1507E-06     100.791E-06     221.244E-09     3.20852E-06     1.54685E-06         1.00846     994.939E-03     994.939E-03    -5.03398E-03    -21.7587E-03         1.01670    -322.715E-03         1.00809    -5.00735E-03    -21.5884E-03     994.742E-03     739.947E-06     10.7308E-03     5.17342E-03
             130              0.              0.              0.              0.     374.254E-06    -114.615E-06     13.7851E-06     356.005E-06     100.820E-06     100.820E-06    -48.6758E-06    -51.1762E-06    -48.6718E-06    -51.1507E-06     100.791E-06    -221.244E-09     3.20852E-06    -1.54685E-06     100.820E-06     100.820E-06    -48.6758E-06    -51.1762E-06    -48.6718E-06    -51.1507E-06     100.791E-06    -221.244E-09     3.20852E-06    -1.54685E-06         1.00846     994.939E-03     994.939E-03    -5.03398E-03    -21.7587E-03         1.01670    -322.715E-03         1.00809    -5.00735E-03    -21.5884E-03     994.742E-03    -739.947E-06     10.7308E-03    -5.17342E-03
             131              0.              0.              0.              0.     384.798E-06    -114.525E-06     88.3959E-06     356.567E-06     99.2336E-06     99.2336E-06    -48.4943E-06    -49.7771E-06    -48.5699E-06    -49.6610E-06     99.1931E-06    -402.446E-09     3.09465E-06    -3.08173E-06     99.2336E-06     99.2336E-06    -48.4943E-06    -49.7771E-06    -48.5699E-06    -49.6610E-06     99.1931E-06    -402.446E-09     3.09465E-06    -3.08173E-06     992.481E-03     982.382E-03     982.382E-03    -5.76462E-03    -14.3451E-03     996.727E-03    -320.757E-03     992.347E-03    -6.27017E-03    -13.5687E-03     982.111E-03    -1.34597E-03     10.3500E-03    -10.3068E-03
             132              0.              0.              0.              0.     393.147E-06    -112.686E-06     112.686E-06     359.401E-06     97.9055E-06     97.9055E-06    -48.3172E-06    -48.6349E-06    -48.4537E-06    -48.4537E-06     97.8609E-06    -362.403E-09     3.06974E-06    -3.06974E-06     97.9055E-06     97.9055E-06    -48.3172E-06    -48.6349E-06    -48.4537E-06    -48.4537E-06     97.8609E-06    -362.403E-09     3.06974E-06    -3.06974E-06     979.143E-03     970.590E-03     970.590E-03    -7.48865E-03    -9.61390E-03     980.204E-03    -317.829E-03     979.136E-03    -8.40185E-03    -8.40185E-03     970.291E-03    -1.21205E-03     10.2667E-03    -10.2667E-03
             133              0.              0.              0.              0.     327.778E-06    -137.965E-06    -137.965E-06     263.381E-06     92.6521E-06     92.6521E-06    -45.2785E-06    -46.4372E-06    -45.8356E-06    -45.8356E-06     92.6077E-06     1.20319E-06     3.00402E-06     3.00402E-06     92.6521E-06     92.6521E-06    -45.2785E-06    -46.4372E-06    -45.8356E-06    -45.8356E-06     92.6077E-06     1.20319E-06     3.00402E-06     3.00402E-06     926.522E-03     929.793E-03     929.793E-03     7.18103E-03    -569.988E-06     930.363E-03    -312.135E-03     926.419E-03     3.45407E-03     3.45407E-03     929.496E-03     4.02406E-03     10.0469E-03     10.0469E-03
             134              0.              0.              0.              0.     299.032E-06    -137.724E-06    -66.0076E-06     257.090E-06     95.3840E-06     95.3840E-06    -45.7833E-06    -48.6604E-06    -46.2317E-06    -48.0630E-06     95.2351E-06     1.90864E-06     3.62658E-06     6.36733E-06     95.3840E-06     95.3840E-06    -45.7833E-06    -48.6604E-06    -46.2317E-06    -48.0630E-06     95.2351E-06     1.90864E-06     3.62658E-06     6.36733E-06     954.156E-03     949.393E-03     949.393E-03     5.12965E-03    -14.1151E-03     963.508E-03    -313.469E-03     953.344E-03     2.12999E-03    -10.1194E-03     948.397E-03     6.38341E-03     12.1290E-03     21.2954E-03
             135              0.              0.              0.              0.     290.716E-06    -138.995E-06    -39.1435E-06     252.317E-06     100.632E-06     100.632E-06    -46.5590E-06    -53.1178E-06    -46.6988E-06    -52.8213E-06     100.475E-06     1.30704E-06     5.08595E-06     4.86532E-06     100.632E-06     100.632E-06    -46.5590E-06    -53.1178E-06    -46.6988E-06    -52.8213E-06     100.475E-06     1.30704E-06     5.08595E-06     4.86532E-06         1.00749     989.374E-03     989.374E-03     4.81829E-03    -39.0532E-03         1.02843    -318.380E-03         1.00448     3.88350E-03    -37.0695E-03     988.325E-03     4.37138E-03     17.0099E-03     16.2720E-03
             136              0.              0.              0.              0.     290.716E-06    -138.995E-06     39.1435E-06     252.317E-06     100.632E-06     100.632E-06    -46.5590E-06    -53.1178E-06    -46.6988E-06    -52.8213E-06     100.475E-06    -1.30704E-06     5.08595E-06    -4.86532E-06     100.632E-06     100.632E-06    -46.5590E-06    -53.1178E-06    -46.6988E-06    -52.8213E-06     100.475E-06    -1.30704E-06     5.08595E-06    -4.86532E-06         1.00749     989.374E-03     989.374E-03     4.81829E-03    -39.0532E-03         1.02843    -318.380E-03         1.00448     3.88350E-03    -37.0695E-03     988.325E-03    -4.37138E-03     17.0099E-03    -16.2720E-03
             137              0.              0.              0.              0.     299.032E-06    -137.724E-06     66.0076E-06     257.090E-06     95.3840E-06     95.3840E-06    -45.7833E-06    -48.6604E-06    -46.2317E-06    -48.0630E-06     95.2351E-06    -1.90864E-06     3.62658E-06    -6.36733E-06     95.3840E-06     95.3840E-06    -45.7833E-06    -48.6604E-06    -46.2317E-06    -48.0630E-06     95.2351E-06    -1.90864E-06     3.62658E-06    -6.36733E-06     954.156E-03     949.393E-03     949.393E-03     5.12965E-03    -14.1151E-03     963.508E-03    -313.469E-03     953.344E-03     2.12999E-03    -10.1194E-03     948.397E-03    -6.38341E-03     12.1290E-03    -21.2954E-03
             138              0.              0.              0.              0.     327.778E-06    -137.965E-06     137.965E-06     263.381E-06     92.6521E-06     92.6521E-06    -45.2785E-06    -46.4372E-06    -45.8356E-06    -45.8356E-06     92.6077E-06    -1.20319E-06     3.00402E-06    -3.00402E-06     92.6521E-06     92.6521E-06    -45.2785E-06    -46.4372E-06    -45.8356E-06    -45.8356E-06     92.6077E-06    -1.20319E-06     3.00402E-06    -3.00402E-06     926.522E-03     929.793E-03     929.793E-03     7.18103E-03    -569.988E-06     930.363E-03    -312.135E-03     926.419E-03     3.45407E-03     3.45407E-03     929.496E-03    -4.02406E-03     10.0469E-03    -10.0469E-03
             139              0.              0.              0.              0.     228.453E-06    -104.089E-06    -104.089E-06     174.705E-06     89.8855E-06     89.8855E-06    -42.7400E-06    -46.3596E-06    -44.3605E-06    -44.3605E-06     89.5067E-06     3.99835E-06     7.65114E-06     7.65114E-06     89.8855E-06     89.8855E-06    -42.7400E-06    -46.3596E-06    -44.3605E-06    -44.3605E-06     89.5067E-06     3.99835E-06     7.65114E-06     7.65114E-06     899.529E-03     861.417E-03     861.417E-03    -25.7096E-03    -49.9209E-03     911.338E-03    -261.929E-03     898.639E-03    -36.5485E-03    -36.5485E-03     858.884E-03     13.3724E-03     25.5891E-03     25.5891E-03
             140              0.              0.              0.              0.     221.841E-06    -107.738E-06    -91.5519E-06     170.951E-06     94.3526E-06     94.3526E-06    -43.9678E-06    -49.5387E-06    -45.5528E-06    -47.4620E-06     93.8610E-06     4.78328E-06     8.78728E-06     3.97856E-06     94.3526E-06     94.3526E-06    -43.9678E-06    -49.5387E-06    -45.5528E-06    -47.4620E-06     93.8610E-06     4.78328E-06     8.78728E-06     3.97856E-06     944.480E-03     911.297E-03     911.297E-03    -13.9231E-03    -51.1869E-03     962.484E-03    -282.062E-03     942.593E-03    -24.5256E-03    -37.2958E-03     908.008E-03     15.9976E-03     29.3889E-03     13.3062E-03
             141              0.              0.              0.              0.     190.785E-06    -116.841E-06    -19.2448E-06     149.589E-06     97.2877E-06     97.2877E-06    -43.0449E-06    -53.3209E-06    -46.9588E-06    -48.9710E-06     96.8517E-06     2.78410E-06     10.6363E-06     152.985E-09     97.2877E-06     97.2877E-06    -43.0449E-06    -53.3209E-06    -46.9588E-06    -48.9710E-06     96.8517E-06     2.78410E-06     10.6363E-06     152.985E-09     975.024E-03     955.974E-03     955.974E-03     17.2940E-03    -51.4417E-03         1.00742    -307.275E-03     969.068E-03    -8.88577E-03    -22.3454E-03     953.057E-03     9.31138E-03     35.5730E-03     511.657E-06
             142              0.              0.              0.              0.     190.785E-06    -116.841E-06     19.2448E-06     149.589E-06     97.2877E-06     97.2877E-06    -43.0449E-06    -53.3209E-06    -46.9588E-06    -48.9710E-06     96.8517E-06    -2.78410E-06     10.6363E-06    -152.985E-09     97.2877E-06     97.2877E-06    -43.0449E-06    -53.3209E-06    -46.9588E-06    -48.9710E-06     96.8517E-06    -2.78410E-06     10.6363E-06    -152.985E-09     975.024E-03     955.974E-03     955.974E-03     17.2940E-03    -51.4417E-03         1.00742    -307.275E-03     969.068E-03    -8.88577E-03    -22.3454E-03     953.057E-03    -9.31138E-03     35.5730E-03    -511.657E-06
             143              0.              0.              0.              0.     221.841E-06    -107.738E-06     91.5519E-06     170.951E-06     94.3526E-06     94.3526E-06    -43.9678E-06    -49.5387E-06    -45.5528E-06    -47.4620E-06     93.8610E-06    -4.78328E-06     8.78728E-06    -3.97856E-06     94.3526E-06     94.3526E-06    -43.9678E-06    -49.5387E-06    -45.5528E-06    -47.4620E-06     93.8610E-06    -4.78328E-06     8.78728E-06    -3.97856E-06     944.480E-03     911.297E-03     911.297E-03    -13.9231E-03    -51.1869E-03     962.484E-03    -282.062E-03     942.593E-03    -24.5256E-03    -37.2958E-03     908.008E-03    -15.9976E-03     29.3889E-03    -13.3062E-03
             144              0.              0.              0.              0.     228.453E-06    -104.089E-06     104.089E-06     174.705E-06     89.8855E-06     89.8855E-06    -42.7400E-06    -46.3596E-06    -44.3605E-06    -44.3605E-06     89.5067E-06    -3.99835E-06     7.65114E-06    -7.65114E-06     89.8855E-06     89.8855E-06    -42.7400E-06    -46.3596E-06    -44.3605E-06    -44.3605E-06     89.5067E-06    -3.99835E-06     7.65114E-06    -7.65114E-06     899.529E-03     861.417E-03     861.417E-03    -25.7096E-03    -49.9209E-03     911.338E-03    -261.929E-03     898.639E-03    -36.5485E-03    -36.5485E-03     858.884E-03    -13.3724E-03     25.5891E-03    -25.5891E-03
             145              0.              0.              0.              0.     213.424E-06    -120.396E-06    -120.396E-06     128.684E-06     93.0404E-06     93.0404E-06    -42.0194E-06    -49.8380E-06    -42.1506E-06    -42.1506E-06     85.4841E-06     5.14162E-06    -23.4004E-06    -23.4004E-06     93.0404E-06     93.0404E-06    -42.0194E-06    -49.8380E-06    -42.1506E-06    -42.1506E-06     85.4841E-06     5.14162E-06    -23.4004E-06    -23.4004E-06     930.766E-03         1.01403         1.01403     110.615E-03     58.3163E-03     955.709E-03    -394.319E-03     927.136E-03     109.737E-03     109.737E-03     963.481E-03     17.1960E-03    -78.2623E-03    -78.2623E-03
             146              0.              0.              0.              0.     159.032E-06    -129.166E-06    -47.8164E-06     79.5041E-06     89.7622E-06     89.7622E-06    -37.1677E-06    -51.3127E-06    -43.5387E-06    -37.5361E-06     82.3565E-06     4.96199E-06    -24.2334E-06    -24.4754E-06     89.7622E-06     89.7622E-06    -37.1677E-06    -51.3127E-06    -43.5387E-06    -37.5361E-06     82.3565E-06     4.96199E-06    -24.2334E-06    -24.4754E-06     903.652E-03         1.02482         1.02482     175.795E-03     81.1799E-03     943.645E-03    -427.267E-03     880.333E-03     133.180E-03     173.331E-03     975.288E-03     16.5953E-03    -81.0481E-03    -81.8574E-03
             147              0.              0.              0.              0.     162.277E-06    -135.832E-06    -19.3686E-06     86.6511E-06     82.9940E-06     82.9940E-06    -29.9548E-06    -51.6822E-06    -44.9517E-06    -30.2576E-06     76.5663E-06     2.39118E-06    -25.8901E-06    -12.7751E-06     82.9940E-06     82.9940E-06    -29.9548E-06    -51.6822E-06    -44.9517E-06    -30.2576E-06     76.5663E-06     2.39118E-06    -25.8901E-06    -12.7751E-06     841.997E-03         1.00446         1.00446     248.952E-03     103.617E-03     900.845E-03    -452.344E-03     797.875E-03     148.638E-03     246.926E-03     961.467E-03     7.99727E-03    -86.5891E-03    -42.7262E-03
             148              0.              0.              0.              0.     162.277E-06    -135.832E-06     19.3686E-06     86.6511E-06     82.9940E-06     82.9940E-06    -29.9548E-06    -51.6822E-06    -44.9517E-06    -30.2576E-06     76.5663E-06    -2.39118E-06    -25.8901E-06     12.7751E-06     82.9940E-06     82.9940E-06    -29.9548E-06    -51.6822E-06    -44.9517E-06    -30.2576E-06     76.5663E-06    -2.39118E-06    -25.8901E-06     12.7751E-06     841.997E-03         1.00446         1.00446     248.952E-03     103.617E-03     900.845E-03    -452.344E-03     797.875E-03     148.638E-03     246.926E-03     961.467E-03    -7.99727E-03    -86.5891E-03     42.7262E-03
             149              0.              0.              0.              0.     159.032E-06    -129.166E-06     47.8164E-06     79.5041E-06     89.7622E-06     89.7622E-06    -37.1677E-06    -51.3127E-06    -43.5387E-06    -37.5361E-06     82.3565E-06    -4.96199E-06    -24.2334E-06     24.4754E-06     89.7622E-06     89.7622E-06    -37.1677E-06    -51.3127E-06    -43.5387E-06    -37.5361E-06     82.3565E-06    -4.96199E-06    -24.2334E-06     24.4754E-06     903.652E-03         1.02482         1.02482     175.795E-03     81.1799E-03     943.645E-03    -427.267E-03     880.333E-03     133.180E-03     173.331E-03     975.288E-03    -16.5953E-03    -81.0481E-03     81.8574E-03
             150              0.              0.              0.              0.     213.424E-06    -120.396E-06     120.396E-06     128.684E-06     93.0404E-06     93.0404E-06    -42.0194E-06    -49.8380E-06    -42.1506E-06    -42.1506E-06     85.4841E-06    -5.14162E-06    -23.4004E-06     23.4004E-06     93.0404E-06     93.0404E-06    -42.0194E-06    -49.8380E-06    -42.1506E-06    -42.1506E-06     85.4841E-06    -5.14162E-06    -23.4004E-06     23.4004E-06     930.766E-03         1.01403         1.01403     110.615E-03     58.3163E-03     955.709E-03    -394.319E-03     927.136E-03     109.737E-03     109.737E-03     963.481E-03    -17.1960E-03    -78.2623E-03     78.2623E-03
             151     428.955E-03     137.752E-03     137.752E-03    -382.167E-03              0.    -137.752E-39    -137.752E-39     382.167E-39     93.3651E-06     93.3651E-06    -40.6749E-06    -50.9082E-06    -38.6119E-06    -38.6119E-06     79.0059E-06     4.12589E-06    -61.0813E-06    -61.0813E-06     93.3651E-06     93.3651E-06    -40.6749E-06    -50.9082E-06    -38.6119E-06    -38.6119E-06     79.0059E-06     4.12589E-06    -61.0813E-06    -61.0813E-06     932.699E-03         1.21456         1.21456     317.973E-03     249.523E-03     965.039E-03    -594.019E-03     927.023E-03     331.772E-03     331.772E-03         1.11851     13.7990E-03    -204.285E-03    -204.285E-03
             152     687.399E-03     275.366E-03     134.134E-03    -615.385E-03              0.    -275.366E-39    -134.134E-39     615.385E-39     82.1461E-06     82.1461E-06    -29.2797E-06    -51.0416E-06    -39.6326E-06    -26.6346E-06     68.0921E-06     3.52335E-06    -63.5138E-06    -48.6208E-06     82.1461E-06     82.1461E-06    -29.2797E-06    -51.0416E-06    -39.6326E-06    -26.6346E-06     68.0921E-06     3.52335E-06    -63.5138E-06    -48.6208E-06     831.991E-03         1.15367         1.15367     408.351E-03     262.786E-03     890.888E-03    -608.270E-03     787.590E-03     339.100E-03     426.044E-03         1.05967     11.7838E-03    -212.421E-03    -162.612E-03
             153     649.911E-03     281.279E-03     23.0482E-03    -585.435E-03              0.    -281.279E-39    -23.0482E-39     585.435E-39     71.0558E-06     71.0558E-06    -18.0636E-06    -51.1468E-06    -40.5131E-06    -16.4500E-06     58.8085E-06     1.46041E-06    -67.5963E-06    -18.0802E-06     71.0558E-06     71.0558E-06    -18.0636E-06    -51.1468E-06    -40.5131E-06    -16.4500E-06     58.8085E-06     1.46041E-06    -67.5963E-06    -18.0802E-06     732.286E-03         1.08631         1.08631     490.197E-03     268.905E-03     817.409E-03    -615.139E-03     650.419E-03     340.033E-03     500.991E-03         1.00439     4.88431E-03    -226.075E-03    -60.4688E-03
             154     649.911E-03     281.279E-03    -23.0482E-03    -585.435E-03              0.    -281.279E-39     23.0482E-39     585.435E-39     71.0558E-06     71.0558E-06    -18.0636E-06    -51.1468E-06    -40.5131E-06    -16.4500E-06     58.8085E-06    -1.46041E-06    -67.5963E-06     18.0802E-06     71.0558E-06     71.0558E-06    -18.0636E-06    -51.1468E-06    -40.5131E-06    -16.4500E-06     58.8085E-06    -1.46041E-06    -67.5963E-06     18.0802E-06     732.286E-03         1.08631         1.08631     490.197E-03     268.905E-03     817.409E-03    -615.139E-03     650.419E-03     340.033E-03     500.991E-03         1.00439    -4.88431E-03    -226.075E-03     60.4688E-03
             155     687.399E-03     275.366E-03    -134.134E-03    -615.385E-03              0.    -275.366E-39     134.134E-39     615.385E-39     82.1461E-06     82.1461E-06    -29.2797E-06    -51.0416E-06    -39.6326E-06    -26.6346E-06     68.0921E-06    -3.52335E-06    -63.5138E-06     48.6208E-06     82.1461E-06     82.1461E-06    -29.2797E-06    -51.0416E-06    -39.6326E-06    -26.6346E-06     68.0921E-06    -3.52335E-06    -63.5138E-06     48.6208E-06     831.991E-03         1.15367         1.15367     408.351E-03     262.786E-03     890.888E-03    -608.270E-03     787.590E-03     339.100E-03     426.044E-03         1.05967    -11.7838E-03    -212.421E-03     162.612E-03
             156     428.955E-03     137.752E-03    -137.752E-03    -382.167E-03              0.    -137.752E-39     137.752E-39     382.167E-39     93.3651E-06     93.3651E-06    -40.6749E-06    -50.9082E-06    -38.6119E-06    -38.6119E-06     79.0059E-06    -4.12589E-06    -61.0813E-06     61.0813E-06     93.3651E-06     93.3651E-06    -40.6749E-06    -50.9082E-06    -38.6119E-06    -38.6119E-06     79.0059E-06    -4.12589E-06    -61.0813E-06     61.0813E-06     932.699E-03         1.21456         1.21456     317.973E-03     249.523E-03     965.039E-03    -594.019E-03     927.023E-03     331.772E-03     331.772E-03         1.11851    -13.7990E-03    -204.285E-03     204.285E-03
             157              0.              0.              0.              0.     2.45896E-03    -70.8113E-06    -126.737E-06     2.45467E-03     99.9856E-06     99.9856E-06    -49.4841E-06    -49.5013E-06    -49.5003E-06    -49.4851E-06     99.9856E-06    -1.71283E-09    -4.55240E-09    -1.21713E-09     99.9856E-06     99.9856E-06    -49.4841E-06    -49.5013E-06    -49.5003E-06    -49.4851E-06     99.9856E-06    -1.71283E-09    -4.55240E-09    -1.21713E-09     999.854E-03     999.987E-03     999.987E-03     190.182E-06     75.2598E-06     999.912E-03    -333.418E-03     999.854E-03     81.9109E-06     183.533E-06     999.987E-03    -5.72854E-06    -15.2254E-06    -4.07067E-06
             158              0.              0.              0.              0.     2.45689E-03    -71.2368E-06    -71.2368E-06     2.45482E-03     99.9998E-06     99.9998E-06    -49.4916E-06    -49.5082E-06    -49.4999E-06    -49.4999E-06     99.9998E-06    -1.15181E-09    -888.114E-12    -888.114E-12     99.9998E-06     99.9998E-06    -49.4916E-06    -49.5082E-06    -49.4999E-06    -49.4999E-06     99.9998E-06    -1.15181E-09    -888.114E-12    -888.114E-12     999.998E-03     999.992E-03     999.992E-03     49.2233E-06    -61.9458E-06         1.00005    -333.326E-03     999.998E-03    -6.36058E-06    -6.36058E-06     999.992E-03    -3.85221E-06    -2.97028E-06    -2.97028E-06
             159              0.              0.              0.              0.     2.45594E-03    -71.2433E-06    -27.7713E-06     2.45475E-03     100.000E-06     100.000E-06    -49.4925E-06    -49.5076E-06    -49.4998E-06    -49.5003E-06     100.000E-06    -295.394E-12    -88.2628E-12    -279.548E-12     100.000E-06     100.000E-06    -49.4925E-06    -49.5076E-06    -49.4998E-06    -49.5003E-06     100.000E-06    -295.394E-12    -88.2628E-12    -279.548E-12         1.00000         1.00000         1.00000     50.2445E-06    -50.6082E-06         1.00005    -333.334E-03         1.00000     1.65165E-06    -2.01477E-06         1.00000    -987.941E-09    -295.193E-09    -934.944E-09
             160              0.              0.              0.              0.     2.45594E-03    -71.2433E-06     27.7713E-06     2.45475E-03     100.000E-06     100.000E-06    -49.4925E-06    -49.5076E-06    -49.4998E-06    -49.5003E-06     100.000E-06     295.394E-12    -88.2628E-12     279.548E-12     100.000E-06     100.000E-06    -49.4925E-06    -49.5076E-06    -49.4998E-06    -49.5003E-06     100.000E-06     295.394E-12    -88.2628E-12     279.548E-12         1.00000         1.00000         1.00000     50.2445E-06    -50.6082E-06         1.00005    -333.334E-03         1.00000     1.65165E-06    -2.01477E-06         1.00000     987.940E-09    -295.193E-09     934.944E-09
             161              0.              0.              0.              0.     2.45689E-03    -71.2368E-06     71.2368E-06     2.45482E-03     99.9998E-06     99.9998E-06    -49.4916E-06    -49.5082E-06    -49.4999E-06    -49.4999E-06     99.9998E-06     1.15181E-09    -888.114E-12     888.114E-12     99.9998E-06     99.9998E-06    -49.4916E-06    -49.5082E-06    -49.4999E-06    -49.4999E-06     99.9998E-06     1.15181E-09    -888.114E-12     888.114E-12     999.998E-03     999.992E-03     999.992E-03     49.2233E-06    -61.9458E-06         1.00005    -333.326E-03     999.998E-03    -6.36058E-06    -6.36058E-06     999.992E-03     3.85221E-06    -2.97028E-06     2.97028E-06
             162              0.              0.              0.              0.     2.45896E-03    -70.8113E-06     126.737E-06     2.45467E-03     99.9856E-06     99.9856E-06    -49.4841E-06    -49.5013E-06    -49.5003E-06    -49.4851E-06     99.9856E-06     1.71283E-09    -4.55240E-09     1.21713E-09     99.9856E-06     99.9856E-06    -49.4841E-06    -49.5013E-06    -49.5003E-06    -49.4851E-06     99.9856E-06     1.71283E-09    -4.55240E-09     1.21713E-09     999.854E-03     999.987E-03     999.987E-03     190.182E-06     75.2598E-06     999.912E-03    -333.418E-03     999.854E-03     81.9109E-06     183.533E-06     999.987E-03     5.72854E-06    -15.2254E-06     4.07067E-06
             163              0.              0.              0.              0.     2.35919E-03    -77.6844E-06    -120.734E-06     2.35482E-03     100.014E-06     100.014E-06    -49.4908E-06    -49.5234E-06    -49.4998E-06    -49.5144E-06     100.014E-06     538.243E-12     1.22118E-09     233.380E-12     100.014E-06     100.014E-06    -49.4908E-06    -49.5234E-06    -49.4998E-06    -49.5144E-06     100.014E-06     538.243E-12     1.22118E-09     233.380E-12         1.00014     999.999E-03     999.999E-03    -32.6874E-06    -250.454E-06         1.00025    -333.239E-03         1.00014    -92.6813E-06    -190.455E-06     999.999E-03     1.80014E-06     4.08421E-06     780.537E-09
             164              0.              0.              0.              0.     2.35720E-03    -77.2915E-06    -77.2915E-06     2.35467E-03     99.9999E-06     99.9999E-06    -49.4842E-06    -49.5157E-06    -49.5000E-06    -49.5000E-06     99.9999E-06     117.448E-12    -146.109E-12    -146.109E-12     99.9999E-06     99.9999E-06    -49.4842E-06    -49.5157E-06    -49.5000E-06    -49.5000E-06     99.9999E-06     117.448E-12    -146.109E-12    -146.109E-12     999.999E-03         1.00000         1.00000     106.787E-06    -104.413E-06         1.00010    -333.334E-03     999.999E-03     1.18886E-06     1.18886E-06         1.00000     392.803E-09    -488.659E-09    -488.659E-09
             165              0.              0.              0.              0.     2.35611E-03    -77.2662E-06    -21.7031E-06     2.35475E-03     100.000E-06     100.000E-06    -49.4853E-06    -49.5148E-06    -49.5001E-06    -49.5000E-06     100.000E-06    -151.673E-12    -97.7209E-12    -262.800E-12     100.000E-06     100.000E-06    -49.4853E-06    -49.5148E-06    -49.5001E-06    -49.5000E-06     100.000E-06    -151.673E-12    -97.7209E-12    -262.800E-12         1.00000         1.00000         1.00000     98.0977E-06    -99.6729E-06         1.00010    -333.333E-03         1.00000    -1.07544E-06    -498.291E-09         1.00000    -507.268E-09    -326.825E-09    -878.928E-09
             166              0.              0.              0.              0.     2.35611E-03    -77.2662E-06     21.7031E-06     2.35475E-03     100.000E-06     100.000E-06    -49.4853E-06    -49.5148E-06    -49.5001E-06    -49.5000E-06     100.000E-06     151.673E-12    -97.7209E-12     262.800E-12     100.000E-06     100.000E-06    -49.4853E-06    -49.5148E-06    -49.5001E-06    -49.5000E-06     100.000E-06     151.673E-12    -97.7209E-12     262.800E-12         1.00000         1.00000         1.00000     98.0977E-06    -99.6729E-06         1.00010    -333.333E-03         1.00000    -1.07544E-06    -498.291E-09         1.00000     507.268E-09    -326.825E-09     878.928E-09
             167              0.              0.              0.              0.     2.35720E-03    -77.2915E-06     77.2915E-06     2.35467E-03     99.9999E-06     99.9999E-06    -49.4842E-06    -49.5157E-06    -49.5000E-06    -49.5000E-06     99.9999E-06    -117.448E-12    -146.109E-12     146.109E-12     99.9999E-06     99.9999E-06    -49.4842E-06    -49.5157E-06    -49.5000E-06    -49.5000E-06     99.9999E-06    -117.448E-12    -146.109E-12     146.109E-12     999.999E-03         1.00000         1.00000     106.787E-06    -104.413E-06         1.00010    -333.334E-03     999.999E-03     1.18886E-06     1.18886E-06         1.00000    -392.803E-09    -488.659E-09     488.659E-09
             168              0.              0.              0.              0.     2.35919E-03    -77.6844E-06     120.734E-06     2.35482E-03     100.014E-06     100.014E-06    -49.4908E-06    -49.5234E-06    -49.4998E-06    -49.5144E-06     100.014E-06    -538.243E-12     1.22118E-09    -233.380E-12     100.014E-06     100.014E-06    -49.4908E-06    -49.5234E-06    -49.4998E-06    -49.5144E-06     100.014E-06    -538.243E-12     1.22118E-09    -233.380E-12         1.00014     999.999E-03     999.999E-03    -32.6874E-06    -250.454E-06         1.00025    -333.239E-03         1.00014    -92.6813E-06    -190.455E-06     999.999E-03    -1.80014E-06     4.08421E-06    -780.537E-09
             169              0.              0.              0.              0.     2.25939E-03    -70.7736E-06    -126.817E-06     2.25472E-03     99.9858E-06     99.9858E-06    -49.4620E-06    -49.5235E-06    -49.4998E-06    -49.4857E-06     99.9858E-06     623.659E-12     624.293E-12     691.375E-12     99.9858E-06     99.9858E-06    -49.4620E-06    -49.5235E-06    -49.4998E-06    -49.4857E-06     99.9858E-06     623.659E-12     624.293E-12     691.375E-12     999.856E-03         1.00001         1.00001     355.425E-06    -56.2494E-06         1.00006    -333.435E-03     999.856E-03     102.223E-06     196.963E-06         1.00001     2.08582E-06     2.08794E-06     2.31229E-06
             170              0.              0.              0.              0.     2.25718E-03    -71.1612E-06    -71.1612E-06     2.25493E-03     99.9998E-06     99.9998E-06    -49.4698E-06    -49.5300E-06    -49.4999E-06    -49.4999E-06     99.9998E-06     518.208E-12     576.545E-12     576.545E-12     99.9998E-06     99.9998E-06    -49.4698E-06    -49.5300E-06    -49.4999E-06    -49.4999E-06     99.9998E-06     518.208E-12     576.545E-12     576.545E-12     999.998E-03     999.999E-03     999.999E-03     203.208E-06    -199.790E-06         1.00020    -333.334E-03     999.998E-03     1.71275E-06     1.71275E-06     999.999E-03     1.73314E-06     1.92824E-06     1.92824E-06
             171              0.              0.              0.              0.     2.25612E-03    -71.1933E-06    -27.8415E-06     2.25482E-03     99.9997E-06     99.9997E-06    -49.4708E-06    -49.5289E-06    -49.4999E-06    -49.4998E-06     99.9997E-06     206.378E-12    -102.868E-12     230.858E-12     99.9997E-06     99.9997E-06    -49.4708E-06    -49.5289E-06    -49.4999E-06    -49.4998E-06     99.9997E-06     206.378E-12    -102.868E-12     230.858E-12     999.997E-03     999.997E-03     999.997E-03     194.454E-06    -194.553E-06         1.00019    -333.332E-03     999.997E-03    -403.776E-09     308.064E-09     999.997E-03     690.228E-09    -344.039E-09     772.100E-09
             172              0.              0.              0.              0.     2.25612E-03    -71.1933E-06     27.8415E-06     2.25482E-03     99.9997E-06     99.9997E-06    -49.4708E-06    -49.5289E-06    -49.4999E-06    -49.4998E-06     99.9997E-06    -206.378E-12    -102.868E-12    -230.858E-12     99.9997E-06     99.9997E-06    -49.4708E-06    -49.5289E-06    -49.4999E-06    -49.4998E-06     99.9997E-06    -206.378E-12    -102.868E-12    -230.858E-12     999.997E-03     999.997E-03     999.997E-03     194.454E-06    -194.553E-06         1.00019    -333.332E-03     999.997E-03    -403.776E-09     308.064E-09     999.997E-03    -690.228E-09    -344.039E-09    -772.100E-09
             173              0.              0.              0.              0.     2.25718E-03    -71.1612E-06     71.1612E-06     2.25493E-03     99.9998E-06     99.9998E-06    -49.4698E-06    -49.5300E-06    -49.4999E-06    -49.4999E-06     99.9998E-06    -518.208E-12     576.545E-12    -576.545E-12     99.9998E-06     99.9998E-06    -49.4698E-06    -49.5300E-06    -49.4999E-06    -49.4999E-06     99.9998E-06    -518.208E-12     576.545E-12    -576.545E-12     999.998E-03     999.999E-03     999.999E-03     203.208E-06    -199.790E-06         1.00020    -333.334E-03     999.998E-03     1.71275E-06     1.71275E-06     999.999E-03    -1.73314E-06     1.92824E-06    -1.92824E-06
             174              0.              0.              0.              0.     2.25939E-03    -70.7736E-06     126.817E-06     2.25472E-03     99.9858E-06     99.9858E-06    -49.4620E-06    -49.5235E-06    -49.4998E-06    -49.4857E-06     99.9858E-06    -623.659E-12     624.293E-12    -691.375E-12     99.9858E-06     99.9858E-06    -49.4620E-06    -49.5235E-06    -49.4998E-06    -49.4857E-06     99.9858E-06    -623.659E-12     624.293E-12    -691.375E-12     999.856E-03         1.00001         1.00001     355.425E-06    -56.2494E-06         1.00006    -333.435E-03     999.856E-03     102.223E-06     196.963E-06         1.00001    -2.08582E-06     2.08794E-06    -2.31229E-06
             175              0.              0.              0.              0.     2.15961E-03    -77.8019E-06    -120.608E-06     2.15484E-03     100.015E-06     100.015E-06    -49.4631E-06    -49.5522E-06    -49.5003E-06    -49.5150E-06     100.015E-06    -452.936E-12     266.491E-12    -102.689E-12     100.015E-06     100.015E-06    -49.4631E-06    -49.5522E-06    -49.5003E-06    -49.5150E-06     100.015E-06    -452.936E-12     266.491E-12    -102.689E-12         1.00015    1000.000E-03    1000.000E-03     146.505E-06    -449.520E-06         1.00045    -333.232E-03         1.00015    -102.598E-06    -200.407E-06    1000.000E-03    -1.51484E-06     891.276E-09    -343.442E-09
             176              0.              0.              0.              0.     2.15730E-03    -77.4092E-06    -77.4092E-06     2.15452E-03     100.000E-06     100.000E-06    -49.4560E-06    -49.5443E-06    -49.5002E-06    -49.5002E-06     100.000E-06    -130.383E-12     177.029E-12     177.029E-12     100.000E-06     100.000E-06    -49.4560E-06    -49.5443E-06    -49.5002E-06    -49.5002E-06     100.000E-06    -130.383E-12     177.029E-12     177.029E-12         1.00000         1.00000         1.00000     295.112E-06    -295.236E-06         1.00030    -333.334E-03         1.00000    -58.3605E-09    -58.3605E-09         1.00000    -436.062E-09     592.070E-09     592.070E-09
             177              0.              0.              0.              0.     2.15618E-03    -77.3773E-06    -21.5885E-06     2.15468E-03     99.9999E-06     99.9999E-06    -49.4566E-06    -49.5433E-06    -49.5001E-06    -49.4999E-06     99.9999E-06     96.0853E-12     125.113E-12     228.374E-12     99.9999E-06     99.9999E-06    -49.4566E-06    -49.5433E-06    -49.5001E-06    -49.4999E-06     99.9999E-06     96.0853E-12     125.113E-12     228.374E-12    1000.000E-03         1.00000         1.00000     291.247E-06    -288.568E-06         1.00029    -333.334E-03     999.999E-03     665.787E-09     2.01768E-06         1.00000     321.355E-09     418.437E-09     763.791E-09
             178              0.              0.              0.              0.     2.15618E-03    -77.3773E-06     21.5885E-06     2.15468E-03     99.9999E-06     99.9999E-06    -49.4566E-06    -49.5433E-06    -49.5001E-06    -49.4999E-06     99.9999E-06    -96.0853E-12     125.113E-12    -228.373E-12     99.9999E-06     99.9999E-06    -49.4566E-06    -49.5433E-06    -49.5001E-06    -49.4999E-06     99.9999E-06    -96.0853E-12     125.113E-12    -228.373E-12    1000.000E-03         1.00000         1.00000     291.247E-06    -288.568E-06         1.00029    -333.334E-03     999.999E-03     665.787E-09     2.01768E-06         1.00000    -321.355E-09     418.437E-09    -763.790E-09
             179              0.              0.              0.              0.     2.15730E-03    -77.4092E-06     77.4092E-06     2.15452E-03     100.000E-06     100.000E-06    -49.4560E-06    -49.5443E-06    -49.5002E-06    -49.5002E-06     100.000E-06     130.383E-12     177.029E-12    -177.029E-12     100.000E-06     100.000E-06    -49.4560E-06    -49.5443E-06    -49.5002E-06    -49.5002E-06     100.000E-06     130.383E-12     177.029E-12    -177.029E-12         1.00000         1.00000         1.00000     295.112E-06    -295.236E-06         1.00030    -333.334E-03         1.00000    -58.3605E-09    -58.3605E-09         1.00000     436.062E-09     592.070E-09    -592.070E-09
             180              0.              0.              0.              0.     2.15961E-03    -77.8019E-06     120.608E-06     2.15484E-03     100.015E-06     100.015E-06    -49.4631E-06    -49.5522E-06    -49.5003E-06    -49.5150E-06     100.015E-06     452.936E-12     266.491E-12     102.689E-12     100.015E-06     100.015E-06    -49.4631E-06    -49.5522E-06    -49.5003E-06    -49.5150E-06     100.015E-06     452.936E-12     266.491E-12     102.689E-12         1.00015    1000.000E-03    1000.000E-03     146.505E-06    -449.520E-06         1.00045    -333.232E-03         1.00015    -102.598E-06    -200.407E-06    1000.000E-03     1.51484E-06     891.276E-09     343.442E-09
             181              0.              0.              0.              0.     2.05980E-03    -70.5896E-06    -126.993E-06     2.05467E-03     99.9846E-06     99.9846E-06    -49.4333E-06    -49.5510E-06    -49.4997E-06    -49.4846E-06     99.9846E-06     378.492E-12    -90.5442E-12     94.9507E-12     99.9846E-06     99.9846E-06    -49.4333E-06    -49.5510E-06    -49.4997E-06    -49.4846E-06     99.9846E-06     378.492E-12    -90.5442E-12     94.9507E-12     999.845E-03         1.00000         1.00000     549.131E-06    -238.197E-06         1.00024    -333.437E-03     999.844E-03     104.992E-06     205.952E-06         1.00000     1.26586E-06    -302.825E-09     317.559E-09
             182              0.              0.              0.              0.     2.05755E-03    -70.9925E-06    -70.9925E-06     2.05510E-03     99.9997E-06     99.9997E-06    -49.4411E-06    -49.5586E-06    -49.4998E-06    -49.4998E-06     99.9997E-06     91.2107E-12    -25.9842E-12    -25.9842E-12     99.9997E-06     99.9997E-06    -49.4411E-06    -49.5586E-06    -49.4998E-06    -49.4998E-06     99.9997E-06     91.2107E-12    -25.9842E-12    -25.9842E-12     999.997E-03     999.997E-03     999.997E-03     392.706E-06    -392.838E-06         1.00039    -333.332E-03     999.996E-03    -62.1658E-09    -62.1658E-09     999.997E-03     305.052E-09    -86.9054E-09    -86.9049E-09
             183              0.              0.              0.              0.     2.05630E-03    -71.0216E-06    -28.0087E-06     2.05488E-03     99.9999E-06     99.9999E-06    -49.4419E-06    -49.5580E-06    -49.4999E-06    -49.5000E-06     99.9999E-06    -98.0356E-12     57.8021E-12    -73.4596E-12     99.9999E-06     99.9999E-06    -49.4419E-06    -49.5580E-06    -49.4999E-06    -49.5000E-06     99.9999E-06    -98.0356E-12     57.8021E-12    -73.4596E-12    1000.000E-03     999.999E-03     999.999E-03     388.020E-06    -388.565E-06         1.00039    -333.333E-03     999.999E-03     133.950E-09    -674.976E-09     999.999E-03    -327.878E-09     193.317E-09    -245.684E-09
             184              0.              0.              0.              0.     2.05630E-03    -71.0216E-06     28.0087E-06     2.05488E-03     99.9999E-06     99.9999E-06    -49.4419E-06    -49.5580E-06    -49.4999E-06    -49.5000E-06     99.9999E-06     98.0356E-12     57.8021E-12     73.4597E-12     99.9999E-06     99.9999E-06    -49.4419E-06    -49.5580E-06    -49.4999E-06    -49.5000E-06     99.9999E-06     98.0356E-12     57.8021E-12     73.4597E-12    1000.000E-03     999.999E-03     999.999E-03     388.020E-06    -388.565E-06         1.00039    -333.333E-03     999.999E-03     133.950E-09    -674.976E-09     999.999E-03     327.878E-09     193.317E-09     245.685E-09
             185              0.              0.              0.              0.     2.05755E-03    -70.9925E-06     70.9925E-06     2.05510E-03     99.9997E-06     99.9997E-06    -49.4411E-06    -49.5586E-06    -49.4998E-06    -49.4998E-06     99.9997E-06    -91.2107E-12    -25.9842E-12     25.9843E-12     99.9997E-06     99.9997E-06    -49.4411E-06    -49.5586E-06    -49.4998E-06    -49.4998E-06     99.9997E-06    -91.2107E-12    -25.9842E-12     25.9843E-12     999.997E-03     999.997E-03     999.997E-03     392.706E-06    -392.838E-06         1.00039    -333.332E-03     999.996E-03    -62.1658E-09    -62.1658E-09     999.997E-03    -305.052E-09    -86.9049E-09     86.9054E-09
             186              0.              0.              0.              0.     2.05980E-03    -70.5896E-06     126.993E-06     2.05467E-03     99.9846E-06     99.9846E-06    -49.4333E-06    -49.5510E-06    -49.4997E-06    -49.4846E-06     99.9846E-06    -378.492E-12    -90.5442E-12    -94.9507E-12     99.9846E-06     99.9846E-06    -49.4333E-06    -49.5510E-06    -49.4997E-06    -49.4846E-06     99.9846E-06    -378.492E-12    -90.5442E-12    -94.9507E-12     999.845E-03         1.00000         1.00000     549.131E-06    -238.197E-06         1.00024    -333.437E-03     999.844E-03     104.992E-06     205.952E-06         1.00000    -1.26586E-06    -302.824E-09    -317.559E-09
             187              0.              0.              0.              0.     1.96015E-03    -78.0510E-06    -120.377E-06     1.95489E-03     100.016E-06     100.016E-06    -49.4338E-06    -49.5824E-06    -49.5002E-06    -49.5160E-06     100.016E-06    -282.535E-12     148.216E-12     18.0749E-12     100.016E-06     100.016E-06    -49.4338E-06    -49.5824E-06    -49.5002E-06    -49.5160E-06     100.016E-06    -282.535E-12     148.216E-12     18.0749E-12         1.00016    1000.000E-03    1000.000E-03     336.476E-06    -657.714E-06         1.00066    -333.226E-03         1.00016    -107.858E-06    -213.368E-06    1000.000E-03    -944.935E-09     495.702E-09     60.4487E-09
             188              0.              0.              0.              0.     1.95743E-03    -77.6351E-06    -77.6351E-06     1.95435E-03     100.000E-06     100.000E-06    -49.4259E-06    -49.5743E-06    -49.5001E-06    -49.5001E-06     100.000E-06    -60.4701E-12     53.4289E-12     53.4289E-12     100.000E-06     100.000E-06    -49.4259E-06    -49.5743E-06    -49.5001E-06    -49.5001E-06     100.000E-06    -60.4701E-12     53.4289E-12     53.4289E-12         1.00000         1.00000         1.00000     496.942E-06    -495.576E-06         1.00050    -333.335E-03         1.00000     687.127E-09     687.127E-09         1.00000    -202.241E-09     178.691E-09     178.691E-09
             189              0.              0.              0.              0.     1.95628E-03    -77.6099E-06    -21.3645E-06     1.95462E-03     100.000E-06     100.000E-06    -49.4266E-06    -49.5734E-06    -49.5001E-06    -49.4999E-06     100.000E-06     80.7976E-12    -9.31311E-12     44.3915E-12     100.000E-06     100.000E-06    -49.4266E-06    -49.5734E-06    -49.5001E-06    -49.4999E-06     100.000E-06     80.7976E-12    -9.31311E-12     44.3915E-12         1.00000         1.00000         1.00000     491.558E-06    -490.743E-06         1.00049    -333.334E-03     999.999E-03    -86.7149E-09     906.170E-09         1.00000     270.226E-09    -31.1472E-09     148.467E-09
             190              0.              0.              0.              0.     1.95628E-03    -77.6099E-06     21.3645E-06     1.95462E-03     100.000E-06     100.000E-06    -49.4266E-06    -49.5734E-06    -49.5001E-06    -49.4999E-06     100.000E-06    -80.7976E-12    -9.31311E-12    -44.3915E-12     100.000E-06     100.000E-06    -49.4266E-06    -49.5734E-06    -49.5001E-06    -49.4999E-06     100.000E-06    -80.7976E-12    -9.31311E-12    -44.3915E-12         1.00000         1.00000         1.00000     491.558E-06    -490.743E-06         1.00049    -333.334E-03     999.999E-03    -86.7149E-09     906.170E-09         1.00000    -270.226E-09    -31.1472E-09    -148.466E-09
             191              0.              0.              0.              0.     1.95743E-03    -77.6351E-06     77.6351E-06     1.95435E-03     100.000E-06     100.000E-06    -49.4259E-06    -49.5743E-06    -49.5001E-06    -49.5001E-06     100.000E-06     60.4701E-12     53.4289E-12    -53.4289E-12     100.000E-06     100.000E-06    -49.4259E-06    -49.5743E-06    -49.5001E-06    -49.5001E-06     100.000E-06     60.4701E-12     53.4289E-12    -53.4289E-12         1.00000         1.00000         1.00000     496.942E-06    -495.576E-06         1.00050    -333.335E-03         1.00000     687.127E-09     687.127E-09         1.00000     202.241E-09     178.691E-09    -178.691E-09
             192              0.              0.              0.              0.     1.96015E-03    -78.0510E-06     120.377E-06     1.95489E-03     100.016E-06     100.016E-06    -49.4338E-06    -49.5824E-06    -49.5002E-06    -49.5160E-06     100.016E-06     282.535E-12     148.216E-12    -18.0749E-12     100.016E-06     100.016E-06    -49.4338E-06    -49.5824E-06    -49.5002E-06    -49.5160E-06     100.016E-06     282.535E-12     148.216E-12    -18.0749E-12         1.00016    1000.000E-03    1000.000E-03     336.476E-06    -657.714E-06         1.00066    -333.226E-03         1.00016    -107.858E-06    -213.368E-06    1000.000E-03     944.935E-09     495.703E-09    -60.4487E-09
             193              0.              0.              0.              0.     1.86031E-03    -70.2752E-06    -127.283E-06     1.85462E-03     99.9834E-06     99.9834E-06    -49.4006E-06    -49.5825E-06    -49.4998E-06    -49.4833E-06     99.9834E-06     218.996E-12    -172.536E-12    -44.8872E-12     99.9834E-06     99.9834E-06    -49.4006E-06    -49.5825E-06    -49.4998E-06    -49.4833E-06     99.9834E-06     218.996E-12    -172.536E-12    -44.8872E-12     999.834E-03         1.00000         1.00000     776.024E-06    -440.481E-06         1.00044    -333.445E-03     999.830E-03     112.384E-06     223.169E-06         1.00000     732.428E-09    -577.046E-09    -150.127E-09
             194              0.              0.              0.              0.     1.85797E-03    -70.7063E-06    -70.7063E-06     1.85528E-03     99.9998E-06     99.9998E-06    -49.4093E-06    -49.5905E-06    -49.4999E-06    -49.4999E-06     99.9998E-06     50.2554E-12    -32.8598E-12    -32.8598E-12     99.9998E-06     99.9998E-06    -49.4093E-06    -49.5905E-06    -49.4999E-06    -49.4999E-06     99.9998E-06     50.2554E-12    -32.8598E-12    -32.8598E-12     999.999E-03     999.997E-03     999.997E-03     605.283E-06    -606.936E-06         1.00060    -333.332E-03     999.996E-03    -822.474E-09    -822.474E-09     999.997E-03     168.078E-09    -109.900E-09    -109.900E-09
             195              0.              0.              0.              0.     1.85651E-03    -70.7268E-06    -28.2932E-06     1.85494E-03     99.9999E-06     99.9999E-06    -49.4104E-06    -49.5896E-06    -49.4999E-06    -49.5000E-06     99.9999E-06    -59.2427E-12     2.32780E-12    -10.4162E-12     99.9999E-06     99.9999E-06    -49.4104E-06    -49.5896E-06    -49.4999E-06    -49.5000E-06     99.9999E-06    -59.2427E-12     2.32780E-12    -10.4162E-12         1.00000     999.999E-03     999.999E-03     599.172E-06    -599.708E-06         1.00060    -333.333E-03     999.997E-03     234.329E-09    -765.314E-09     999.999E-03    -198.136E-09     7.78573E-09    -34.8368E-09
             196              0.              0.              0.              0.     1.85651E-03    -70.7268E-06     28.2932E-06     1.85494E-03     99.9999E-06     99.9999E-06    -49.4104E-06    -49.5896E-06    -49.4999E-06    -49.5000E-06     99.9999E-06     59.2426E-12     2.32780E-12     10.4162E-12     99.9999E-06     99.9999E-06    -49.4104E-06    -49.5896E-06    -49.4999E-06    -49.5000E-06     99.9999E-06     59.2426E-12     2.32780E-12     10.4162E-12         1.00000     999.999E-03     999.999E-03     599.172E-06    -599.708E-06         1.00060    -333.333E-03     999.997E-03     234.329E-09    -765.314E-09     999.999E-03     198.136E-09     7.78573E-09     34.8369E-09
             197              0.              0.              0.              0.     1.85797E-03    -70.7063E-06     70.7063E-06     1.85528E-03     99.9998E-06     99.9998E-06    -49.4093E-06    -49.5905E-06    -49.4999E-06    -49.4999E-06     99.9998E-06    -50.2554E-12    -32.8598E-12     32.8598E-12     99.9998E-06     99.9998E-06    -49.4093E-06    -49.5905E-06    -49.4999E-06    -49.4999E-06     99.9998E-06    -50.2554E-12    -32.8598E-12     32.8598E-12     999.999E-03     999.997E-03     999.997E-03     605.283E-06    -606.936E-06         1.00060    -333.332E-03     999.996E-03    -822.474E-09    -822.474E-09     999.997E-03    -168.078E-09    -109.900E-09     109.900E-09
             198              0.              0.              0.              0.     1.86031E-03    -70.2752E-06     127.283E-06     1.85462E-03     99.9834E-06     99.9834E-06    -49.4006E-06    -49.5825E-06    -49.4998E-06    -49.4833E-06     99.9834E-06    -218.996E-12    -172.536E-12     44.8872E-12     99.9834E-06     99.9834E-06    -49.4006E-06    -49.5825E-06    -49.4998E-06    -49.4833E-06     99.9834E-06    -218.996E-12    -172.536E-12     44.8872E-12     999.834E-03         1.00000         1.00000     776.024E-06    -440.481E-06         1.00044    -333.445E-03     999.830E-03     112.384E-06     223.169E-06         1.00000    -732.428E-09    -577.046E-09     150.127E-09
             199              0.              0.              0.              0.     1.76080E-03    -78.4333E-06    -120.026E-06     1.75495E-03     100.017E-06     100.017E-06    -49.4006E-06    -49.6172E-06    -49.5002E-06    -49.5177E-06     100.017E-06    -178.585E-12     198.781E-12     37.0344E-12     100.017E-06     100.017E-06    -49.4006E-06    -49.6172E-06    -49.5002E-06    -49.5177E-06     100.017E-06    -178.585E-12     198.781E-12     37.0344E-12         1.00018    1000.000E-03    1000.000E-03     547.908E-06    -901.292E-06         1.00090    -333.215E-03         1.00017    -118.212E-06    -235.160E-06    1000.000E-03    -597.276E-09     664.819E-09     123.859E-09
             200              0.              0.              0.              0.     1.75762E-03    -77.9847E-06    -77.9847E-06     1.75416E-03     100.000E-06     100.000E-06    -49.3923E-06    -49.6080E-06    -49.5001E-06    -49.5001E-06     100.000E-06    -41.8566E-12     11.6075E-12     11.6076E-12     100.000E-06     100.000E-06    -49.3923E-06    -49.6080E-06    -49.5001E-06    -49.5001E-06     100.000E-06    -41.8566E-12     11.6075E-12     11.6076E-12         1.00000         1.00000         1.00000     722.326E-06    -720.544E-06         1.00072    -333.335E-03     999.999E-03     895.729E-09     895.729E-09         1.00000    -139.989E-09     38.8204E-09     38.8204E-09
             201              0.              0.              0.              0.     1.75641E-03    -77.9696E-06    -21.0164E-06     1.75456E-03     100.000E-06     100.000E-06    -49.3933E-06    -49.6067E-06    -49.5001E-06    -49.5000E-06     100.000E-06     47.4361E-12    -4.85156E-12    -6.90957E-12     100.000E-06     100.000E-06    -49.3933E-06    -49.6067E-06    -49.5001E-06    -49.5000E-06     100.000E-06     47.4361E-12    -4.85156E-12    -6.90957E-12         1.00000         1.00000         1.00000     713.909E-06    -713.372E-06         1.00071    -333.334E-03     999.998E-03    -246.262E-09     788.728E-09         1.00000     158.649E-09    -16.2261E-09    -23.1088E-09
             202              0.              0.              0.              0.     1.75641E-03    -77.9696E-06     21.0164E-06     1.75456E-03     100.000E-06     100.000E-06    -49.3933E-06    -49.6067E-06    -49.5001E-06    -49.5000E-06     100.000E-06    -47.4361E-12    -4.85156E-12     6.90971E-12     100.000E-06     100.000E-06    -49.3933E-06    -49.6067E-06    -49.5001E-06    -49.5000E-06     100.000E-06    -47.4361E-12    -4.85156E-12     6.90971E-12         1.00000         1.00000         1.00000     713.909E-06    -713.372E-06         1.00071    -333.334E-03     999.998E-03    -246.262E-09     788.728E-09         1.00000    -158.649E-09    -16.2261E-09     23.1089E-09
             203              0.              0.              0.              0.     1.75762E-03    -77.9847E-06     77.9847E-06     1.75416E-03     100.000E-06     100.000E-06    -49.3923E-06    -49.6080E-06    -49.5001E-06    -49.5001E-06     100.000E-06     41.8566E-12     11.6076E-12    -11.6075E-12     100.000E-06     100.000E-06    -49.3923E-06    -49.6080E-06    -49.5001E-06    -49.5001E-06     100.000E-06     41.8566E-12     11.6076E-12    -11.6075E-12         1.00000         1.00000         1.00000     722.326E-06    -720.544E-06         1.00072    -333.335E-03     999.999E-03     895.729E-09     895.729E-09         1.00000     139.989E-09     38.8204E-09    -38.8204E-09
             204              0.              0.              0.              0.     1.76080E-03    -78.4333E-06     120.026E-06     1.75495E-03     100.017E-06     100.017E-06    -49.4006E-06    -49.6172E-06    -49.5002E-06    -49.5177E-06     100.017E-06     178.585E-12     198.781E-12    -37.0344E-12     100.017E-06     100.017E-06    -49.4006E-06    -49.6172E-06    -49.5002E-06    -49.5177E-06     100.017E-06     178.585E-12     198.781E-12    -37.0344E-12         1.00018    1000.000E-03    1000.000E-03     547.908E-06    -901.292E-06         1.00090    -333.215E-03         1.00017    -118.212E-06    -235.160E-06    1000.000E-03     597.276E-09     664.819E-09    -123.859E-09
             205              0.              0.              0.              0.     1.66094E-03    -69.8218E-06    -127.700E-06     1.65455E-03     99.9815E-06     99.9815E-06    -49.3639E-06    -49.6172E-06    -49.4998E-06    -49.4813E-06     99.9815E-06     158.430E-12    -244.454E-12    -32.8018E-12     99.9815E-06     99.9815E-06    -49.3639E-06    -49.6172E-06    -49.4998E-06    -49.4813E-06     99.9815E-06     158.430E-12    -244.454E-12    -32.8018E-12     999.815E-03         1.00000         1.00000     1.03458E-03    -659.958E-06         1.00066    -333.458E-03     999.809E-03     125.275E-06     249.359E-06         1.00000     529.866E-09    -817.571E-09    -109.705E-09
             206              0.              0.              0.              0.     1.65846E-03    -70.2900E-06    -70.2900E-06     1.65548E-03     99.9998E-06     99.9998E-06    -49.3738E-06    -49.6259E-06    -49.4999E-06    -49.4999E-06     99.9998E-06     36.6307E-12    -12.4251E-12    -12.4249E-12     99.9998E-06     99.9998E-06    -49.3738E-06    -49.6259E-06    -49.4999E-06    -49.4999E-06     99.9998E-06     36.6307E-12    -12.4251E-12    -12.4249E-12    1000.000E-03     999.997E-03     999.997E-03     842.292E-06    -844.185E-06         1.00084    -333.332E-03     999.993E-03    -941.291E-09    -941.291E-09     999.997E-03     122.511E-09    -41.5548E-09    -41.5548E-09
             207              0.              0.              0.              0.     1.65675E-03    -70.2988E-06    -28.7084E-06     1.65501E-03     99.9999E-06     99.9999E-06    -49.3752E-06    -49.6247E-06    -49.4999E-06    -49.5000E-06     99.9999E-06    -42.5842E-12    -11.2733E-12     3.97595E-12     99.9999E-06     99.9999E-06    -49.3752E-06    -49.6247E-06    -49.4999E-06    -49.5000E-06     99.9999E-06    -42.5842E-12    -11.2733E-12     3.97595E-12         1.00000     999.999E-03     999.999E-03     834.198E-06    -834.821E-06         1.00083    -333.333E-03     999.995E-03     228.349E-09    -845.932E-09     999.999E-03    -142.422E-09    -37.7031E-09     13.2978E-09
             208              0.              0.              0.              0.     1.65675E-03    -70.2988E-06     28.7084E-06     1.65501E-03     99.9999E-06     99.9999E-06    -49.3752E-06    -49.6247E-06    -49.4999E-06    -49.5000E-06     99.9999E-06     42.5842E-12    -11.2733E-12    -3.97580E-12     99.9999E-06     99.9999E-06    -49.3752E-06    -49.6247E-06    -49.4999E-06    -49.5000E-06     99.9999E-06     42.5842E-12    -11.2733E-12    -3.97580E-12         1.00000     999.999E-03     999.999E-03     834.198E-06    -834.821E-06         1.00083    -333.333E-03     999.995E-03     228.349E-09    -845.932E-09     999.999E-03     142.422E-09    -37.7031E-09    -13.2977E-09
             209              0.              0.              0.              0.     1.65846E-03    -70.2900E-06     70.2900E-06     1.65548E-03     99.9998E-06     99.9998E-06    -49.3738E-06    -49.6259E-06    -49.4999E-06    -49.4999E-06     99.9998E-06    -36.6307E-12    -12.4249E-12     12.4251E-12     99.9998E-06     99.9998E-06    -49.3738E-06    -49.6259E-06    -49.4999E-06    -49.4999E-06     99.9998E-06    -36.6307E-12    -12.4249E-12     12.4251E-12    1000.000E-03     999.997E-03     999.997E-03     842.292E-06    -844.185E-06         1.00084    -333.332E-03     999.993E-03    -941.291E-09    -941.291E-09     999.997E-03    -122.511E-09    -41.5548E-09     41.5548E-09
             210              0.              0.              0.              0.     1.66094E-03    -69.8218E-06     127.700E-06     1.65455E-03     99.9815E-06     99.9815E-06    -49.3639E-06    -49.6172E-06    -49.4998E-06    -49.4813E-06     99.9815E-06    -158.430E-12    -244.454E-12     32.8018E-12     99.9815E-06     99.9815E-06    -49.3639E-06    -49.6172E-06    -49.4998E-06    -49.4813E-06     99.9815E-06    -158.430E-12    -244.454E-12     32.8018E-12     999.815E-03         1.00000         1.00000     1.03458E-03    -659.958E-06         1.00066    -333.458E-03     999.809E-03     125.275E-06     249.359E-06         1.00000    -529.866E-09    -817.571E-09     109.705E-09
             211              0.              0.              0.              0.     1.56160E-03    -78.9617E-06    -119.538E-06     1.55501E-03     100.020E-06     100.020E-06    -49.3639E-06    -49.6562E-06    -49.5002E-06    -49.5200E-06     100.020E-06    -159.855E-12     285.258E-12     24.3126E-12     100.020E-06     100.020E-06    -49.3639E-06    -49.6562E-06    -49.5002E-06    -49.5200E-06     100.020E-06    -159.855E-12     285.258E-12     24.3126E-12         1.00020    1000.000E-03    1000.000E-03     777.727E-06    -1.17722E-03         1.00118    -333.200E-03         1.00019    -133.592E-06    -265.884E-06    1000.000E-03    -534.632E-09     954.040E-09     81.3143E-09
             212              0.              0.              0.              0.     1.55790E-03    -78.4717E-06    -78.4717E-06     1.55394E-03     100.000E-06     100.000E-06    -49.3547E-06    -49.6455E-06    -49.5001E-06    -49.5001E-06     100.000E-06    -42.9852E-12     6.16962E-12     6.16962E-12     100.000E-06     100.000E-06    -49.3547E-06    -49.6455E-06    -49.5001E-06    -49.5001E-06     100.000E-06    -42.9852E-12     6.16962E-12     6.16962E-12         1.00001         1.00000         1.00000     973.588E-06    -971.702E-06         1.00098    -333.335E-03     999.997E-03     948.654E-09     948.654E-09         1.00000    -143.763E-09     20.6351E-09     20.6351E-09
             213              0.              0.              0.              0.     1.55660E-03    -78.4700E-06    -20.5305E-06     1.55448E-03     100.000E-06     100.000E-06    -49.3560E-06    -49.6440E-06    -49.5001E-06    -49.5000E-06     100.000E-06     36.9424E-12     10.5075E-12    -5.98664E-12     100.000E-06     100.000E-06    -49.3560E-06    -49.6440E-06    -49.5001E-06    -49.5000E-06     100.000E-06     36.9424E-12     10.5075E-12    -5.98664E-12         1.00000         1.00000         1.00000     963.507E-06    -962.915E-06         1.00096    -333.334E-03     999.995E-03    -265.936E-09     864.165E-09         1.00000     123.553E-09     35.1433E-09    -20.0220E-09
             214              0.              0.              0.              0.     1.55660E-03    -78.4700E-06     20.5305E-06     1.55448E-03     100.000E-06     100.000E-06    -49.3560E-06    -49.6440E-06    -49.5001E-06    -49.5000E-06     100.000E-06    -36.9424E-12     10.5075E-12     5.98667E-12     100.000E-06     100.000E-06    -49.3560E-06    -49.6440E-06    -49.5001E-06    -49.5000E-06     100.000E-06    -36.9424E-12     10.5075E-12     5.98667E-12         1.00000         1.00000         1.00000     963.507E-06    -962.915E-06         1.00096    -333.334E-03     999.995E-03    -265.936E-09     864.165E-09         1.00000    -123.553E-09     35.1433E-09     20.0221E-09
             215              0.              0.              0.              0.     1.55790E-03    -78.4717E-06     78.4717E-06     1.55394E-03     100.000E-06     100.000E-06    -49.3547E-06    -49.6455E-06    -49.5001E-06    -49.5001E-06     100.000E-06     42.9852E-12     6.16962E-12    -6.16962E-12     100.000E-06     100.000E-06    -49.3547E-06    -49.6455E-06    -49.5001E-06    -49.5001E-06     100.000E-06     42.9852E-12     6.16962E-12    -6.16962E-12         1.00001         1.00000         1.00000     973.588E-06    -971.702E-06         1.00098    -333.335E-03     999.997E-03     948.654E-09     948.654E-09         1.00000     143.763E-09     20.6351E-09    -20.6351E-09
             216              0.              0.              0.              0.     1.56160E-03    -78.9617E-06     119.538E-06     1.55501E-03     100.020E-06     100.020E-06    -49.3639E-06    -49.6562E-06    -49.5002E-06    -49.5200E-06     100.020E-06     159.855E-12     285.258E-12    -24.3126E-12     100.020E-06     100.020E-06    -49.3639E-06    -49.6562E-06    -49.5002E-06    -49.5200E-06     100.020E-06     159.855E-12     285.258E-12    -24.3126E-12         1.00020    1000.000E-03    1000.000E-03     777.727E-06    -1.17722E-03         1.00118    -333.200E-03         1.00019    -133.592E-06    -265.884E-06    1000.000E-03     534.632E-09     954.040E-09    -81.3143E-09
             217              0.              0.              0.              0.     1.46177E-03    -69.2140E-06    -128.262E-06     1.45448E-03     99.9788E-06     99.9788E-06    -49.3223E-06    -49.6561E-06    -49.4998E-06    -49.4786E-06     99.9788E-06     160.224E-12    -276.223E-12    -840.217E-15     99.9788E-06     99.9788E-06    -49.3223E-06    -49.6561E-06    -49.4998E-06    -49.4786E-06     99.9788E-06     160.224E-12    -276.223E-12    -840.217E-15     999.790E-03         1.00000         1.00000     1.33047E-03    -902.567E-06         1.00090    -333.476E-03     999.779E-03     143.086E-06     284.832E-06         1.00000     535.867E-09    -923.825E-09    -2.80852E-09
             218              0.              0.              0.              0.     1.45904E-03    -69.7279E-06    -69.7279E-06     1.45571E-03     99.9997E-06     99.9997E-06    -49.3338E-06    -49.6659E-06    -49.4999E-06    -49.4999E-06     99.9997E-06     40.2562E-12     48.8717E-12     48.8717E-12     99.9997E-06     99.9997E-06    -49.3338E-06    -49.6659E-06    -49.4999E-06    -49.4999E-06     99.9997E-06     40.2562E-12     48.8717E-12     48.8717E-12         1.00000     999.996E-03     999.996E-03     1.10972E-03    -1.11207E-03         1.00111    -333.331E-03     999.990E-03    -1.16795E-06    -1.16795E-06     999.996E-03     134.637E-09     163.452E-09     163.452E-09
             219              0.              0.              0.              0.     1.45705E-03    -69.7214E-06    -29.2695E-06     1.45509E-03     99.9999E-06     99.9999E-06    -49.3354E-06    -49.6646E-06    -49.4999E-06    -49.5001E-06     99.9999E-06    -39.8559E-12     41.1847E-12     49.2918E-12     99.9999E-06     99.9999E-06    -49.3354E-06    -49.6646E-06    -49.4999E-06    -49.5001E-06     99.9999E-06    -39.8559E-12     41.1847E-12     49.2918E-12         1.00000     999.999E-03     999.999E-03     1.10028E-03    -1.10173E-03         1.00110    -333.332E-03     999.992E-03     189.175E-12    -1.45234E-06     999.999E-03    -133.297E-09     137.743E-09     164.856E-09
             220              0.              0.              0.              0.     1.45705E-03    -69.7214E-06     29.2695E-06     1.45509E-03     99.9999E-06     99.9999E-06    -49.3354E-06    -49.6646E-06    -49.4999E-06    -49.5001E-06     99.9999E-06     39.8559E-12     41.1847E-12    -49.2918E-12     99.9999E-06     99.9999E-06    -49.3354E-06    -49.6646E-06    -49.4999E-06    -49.5001E-06     99.9999E-06     39.8559E-12     41.1847E-12    -49.2918E-12         1.00000     999.999E-03     999.999E-03     1.10028E-03    -1.10173E-03         1.00110    -333.332E-03     999.992E-03     189.175E-12    -1.45234E-06     999.999E-03     133.297E-09     137.743E-09    -164.856E-09
             221              0.              0.              0.              0.     1.45904E-03    -69.7279E-06     69.7279E-06     1.45571E-03     99.9997E-06     99.9997E-06    -49.3338E-06    -49.6659E-06    -49.4999E-06    -49.4999E-06     99.9997E-06    -40.2562E-12     48.8717E-12    -48.8717E-12     99.9997E-06     99.9997E-06    -49.3338E-06    -49.6659E-06    -49.4999E-06    -49.4999E-06     99.9997E-06    -40.2562E-12     48.8717E-12    -48.8717E-12         1.00000     999.996E-03     999.996E-03     1.10972E-03    -1.11207E-03         1.00111    -333.331E-03     999.990E-03    -1.16795E-06    -1.16795E-06     999.996E-03    -134.636E-09     163.452E-09    -163.452E-09
             222              0.              0.              0.              0.     1.46177E-03    -69.2140E-06     128.262E-06     1.45448E-03     99.9788E-06     99.9788E-06    -49.3223E-06    -49.6561E-06    -49.4998E-06    -49.4786E-06     99.9788E-06    -160.224E-12    -276.223E-12     840.217E-15     99.9788E-06     99.9788E-06    -49.3223E-06    -49.6561E-06    -49.4998E-06    -49.4786E-06     99.9788E-06    -160.224E-12    -276.223E-12     840.217E-15     999.790E-03         1.00000         1.00000     1.33047E-03    -902.567E-06         1.00090    -333.476E-03     999.779E-03     143.086E-06     284.832E-06         1.00000    -535.867E-09    -923.825E-09     2.80852E-09
             223              0.              0.              0.              0.     1.36263E-03    -79.6543E-06    -118.897E-06     1.35509E-03     100.023E-06     100.023E-06    -49.3224E-06    -49.7008E-06    -49.5003E-06    -49.5230E-06     100.023E-06    -162.034E-12     514.821E-12     207.400E-12     100.023E-06     100.023E-06    -49.3224E-06    -49.7008E-06    -49.5003E-06    -49.5230E-06     100.023E-06    -162.034E-12     514.821E-12     207.400E-12         1.00023     999.999E-03     999.999E-03     1.03440E-03    -1.49671E-03         1.00150    -333.179E-03         1.00022    -155.148E-06    -307.139E-06     999.999E-03    -541.918E-09     1.72181E-06     693.646E-09
             224              0.              0.              0.              0.     1.35832E-03    -79.1142E-06    -79.1142E-06     1.35370E-03     100.000E-06     100.000E-06    -49.3120E-06    -49.6884E-06    -49.5002E-06    -49.5002E-06     100.000E-06    -34.7047E-12     138.550E-12     138.550E-12     100.000E-06     100.000E-06    -49.3120E-06    -49.6884E-06    -49.5002E-06    -49.5002E-06     100.000E-06    -34.7047E-12     138.550E-12     138.550E-12         1.00001         1.00000         1.00000     1.25930E-03    -1.25891E-03         1.00126    -333.335E-03     999.995E-03     203.465E-09     203.465E-09         1.00000    -116.069E-09     463.376E-09     463.377E-09
             225              0.              0.              0.              0.     1.35686E-03    -79.1301E-06    -19.8890E-06     1.35440E-03     100.000E-06     100.000E-06    -49.3134E-06    -49.6868E-06    -49.5002E-06    -49.5000E-06     100.000E-06     46.3122E-12     143.067E-12     34.8496E-12     100.000E-06     100.000E-06    -49.3134E-06    -49.6868E-06    -49.5002E-06    -49.5000E-06     100.000E-06     46.3122E-12     143.067E-12     34.8496E-12         1.00001         1.00000         1.00000     1.24870E-03    -1.24926E-03         1.00125    -333.334E-03     999.993E-03    -876.229E-09     323.809E-09         1.00000     154.890E-09     478.484E-09     116.554E-09
             226              0.              0.              0.              0.     1.35686E-03    -79.1301E-06     19.8890E-06     1.35440E-03     100.000E-06     100.000E-06    -49.3134E-06    -49.6868E-06    -49.5002E-06    -49.5000E-06     100.000E-06    -46.3121E-12     143.067E-12    -34.8493E-12     100.000E-06     100.000E-06    -49.3134E-06    -49.6868E-06    -49.5002E-06    -49.5000E-06     100.000E-06    -46.3121E-12     143.067E-12    -34.8493E-12         1.00001         1.00000         1.00000     1.24870E-03    -1.24926E-03         1.00125    -333.334E-03     999.993E-03    -876.229E-09     323.809E-09         1.00000    -154.890E-09     478.484E-09    -116.553E-09
             227              0.              0.              0.              0.     1.35832E-03    -79.1142E-06     79.1142E-06     1.35370E-03     100.000E-06     100.000E-06    -49.3120E-06    -49.6884E-06    -49.5002E-06    -49.5002E-06     100.000E-06     34.7047E-12     138.550E-12    -138.550E-12     100.000E-06     100.000E-06    -49.3120E-06    -49.6884E-06    -49.5002E-06    -49.5002E-06     100.000E-06     34.7047E-12     138.550E-12    -138.550E-12         1.00001         1.00000         1.00000     1.25930E-03    -1.25891E-03         1.00126    -333.335E-03     999.995E-03     203.465E-09     203.465E-09         1.00000     116.069E-09     463.377E-09    -463.376E-09
             228              0.              0.              0.              0.     1.36263E-03    -79.6543E-06     118.897E-06     1.35509E-03     100.023E-06     100.023E-06    -49.3224E-06    -49.7008E-06    -49.5003E-06    -49.5230E-06     100.023E-06     162.034E-12     514.821E-12    -207.400E-12     100.023E-06     100.023E-06    -49.3224E-06    -49.7008E-06    -49.5003E-06    -49.5230E-06     100.023E-06     162.034E-12     514.821E-12    -207.400E-12         1.00023     999.999E-03     999.999E-03     1.03440E-03    -1.49671E-03         1.00150    -333.179E-03         1.00022    -155.148E-06    -307.139E-06     999.999E-03     541.918E-09     1.72181E-06    -693.646E-09
             229              0.              0.              0.              0.     1.26287E-03    -68.4313E-06    -128.990E-06     1.25440E-03     99.9751E-06     99.9751E-06    -49.2740E-06    -49.7006E-06    -49.4996E-06    -49.4750E-06     99.9751E-06     279.887E-12    -98.2667E-12     81.8332E-12     99.9751E-06     99.9751E-06    -49.2740E-06    -49.7006E-06    -49.4996E-06    -49.4750E-06     99.9751E-06     279.887E-12    -98.2667E-12     81.8332E-12     999.754E-03     999.998E-03     999.998E-03     1.67629E-03    -1.17725E-03         1.00118    -333.499E-03     999.737E-03     166.966E-06     332.102E-06     999.998E-03     936.076E-09    -328.653E-09     273.689E-09
             230              0.              0.              0.              0.     1.25976E-03    -68.9993E-06    -68.9993E-06     1.25597E-03     99.9995E-06     99.9995E-06    -49.2875E-06    -49.7120E-06    -49.4997E-06    -49.4997E-06     99.9995E-06     187.156E-12     382.003E-12     382.004E-12     99.9995E-06     99.9995E-06    -49.2875E-06    -49.7120E-06    -49.4997E-06    -49.4997E-06     99.9995E-06     187.156E-12     382.003E-12     382.004E-12         1.00000     999.994E-03     999.994E-03     1.41890E-03    -1.42027E-03         1.00141    -333.331E-03     999.983E-03    -676.460E-09    -676.460E-09     999.994E-03     625.941E-09     1.27760E-06     1.27760E-06
             231              0.              0.              0.              0.     1.25743E-03    -68.9729E-06    -29.9975E-06     1.25518E-03     100.000E-06     100.000E-06    -49.2893E-06    -49.7107E-06    -49.4997E-06    -49.5003E-06     100.000E-06     47.2132E-12     509.384E-12     341.087E-12     100.000E-06     100.000E-06    -49.2893E-06    -49.7107E-06    -49.4997E-06    -49.5003E-06     100.000E-06     47.2132E-12     509.384E-12     341.087E-12         1.00001     999.999E-03     999.999E-03     1.40807E-03    -1.41051E-03         1.00141    -333.332E-03     999.988E-03     637.956E-09    -3.06813E-06     999.999E-03     157.903E-09     1.70363E-06     1.14076E-06
             232              0.              0.              0.              0.     1.25743E-03    -68.9729E-06     29.9975E-06     1.25518E-03     100.000E-06     100.000E-06    -49.2893E-06    -49.7107E-06    -49.4997E-06    -49.5003E-06     100.000E-06    -47.2131E-12     509.384E-12    -341.087E-12     100.000E-06     100.000E-06    -49.2893E-06    -49.7107E-06    -49.4997E-06    -49.5003E-06     100.000E-06    -47.2131E-12     509.384E-12    -341.087E-12         1.00001     999.999E-03     999.999E-03     1.40807E-03    -1.41051E-03         1.00141    -333.332E-03     999.988E-03     637.956E-09    -3.06813E-06     999.999E-03    -157.903E-09     1.70363E-06    -1.14076E-06
             233              0.              0.              0.              0.     1.25976E-03    -68.9993E-06     68.9993E-06     1.25597E-03     99.9995E-06     99.9995E-06    -49.2875E-06    -49.7120E-06    -49.4997E-06    -49.4997E-06     99.9995E-06    -187.156E-12     382.004E-12    -382.003E-12     99.9995E-06     99.9995E-06    -49.2875E-06    -49.7120E-06    -49.4997E-06    -49.4997E-06     99.9995E-06    -187.156E-12     382.004E-12    -382.003E-12         1.00000     999.994E-03     999.994E-03     1.41890E-03    -1.42027E-03         1.00141    -333.331E-03     999.983E-03    -676.460E-09    -676.460E-09     999.994E-03    -625.941E-09     1.27760E-06    -1.27760E-06
             234              0.              0.              0.              0.     1.26287E-03    -68.4313E-06     128.990E-06     1.25440E-03     99.9751E-06     99.9751E-06    -49.2740E-06    -49.7006E-06    -49.4996E-06    -49.4750E-06     99.9751E-06    -279.887E-12    -98.2667E-12    -81.8332E-12     99.9751E-06     99.9751E-06    -49.2740E-06    -49.7006E-06    -49.4996E-06    -49.4750E-06     99.9751E-06    -279.887E-12    -98.2667E-12    -81.8332E-12     999.754E-03     999.998E-03     999.998E-03     1.67629E-03    -1.17725E-03         1.00118    -333.499E-03     999.737E-03     166.966E-06     332.102E-06     999.998E-03    -936.076E-09    -328.652E-09    -273.689E-09
             235              0.              0.              0.              0.     1.16400E-03    -80.5340E-06    -118.076E-06     1.15519E-03     100.026E-06     100.026E-06    -49.2741E-06    -49.7529E-06    -49.5002E-06    -49.5268E-06     100.026E-06     26.7134E-12     883.893E-12     614.997E-12     100.026E-06     100.026E-06    -49.2741E-06    -49.7529E-06    -49.5002E-06    -49.5268E-06     100.026E-06     26.7134E-12     883.893E-12     614.997E-12         1.00028     999.994E-03     999.994E-03     1.32788E-03    -1.87482E-03         1.00187    -333.149E-03         1.00025    -184.584E-06    -362.334E-06     999.994E-03     89.3428E-09     2.95616E-06     2.05685E-06
             236              0.              0.              0.              0.     1.15894E-03    -79.9365E-06    -79.9365E-06     1.15341E-03     100.001E-06     100.001E-06    -49.2621E-06    -49.7384E-06    -49.5003E-06    -49.5003E-06     100.000E-06     194.194E-12     397.324E-12     397.324E-12     100.001E-06     100.001E-06    -49.2621E-06    -49.7384E-06    -49.5003E-06    -49.5003E-06     100.000E-06     194.194E-12     397.324E-12     397.324E-12         1.00001         1.00000         1.00000     1.59101E-03    -1.59559E-03         1.00160    -333.333E-03     999.990E-03    -2.27749E-06    -2.27749E-06         1.00000     649.478E-09     1.32884E-06     1.32884E-06
             237              0.              0.              0.              0.     1.15723E-03    -79.9753E-06    -19.0679E-06     1.15430E-03     100.000E-06     100.000E-06    -49.2637E-06    -49.7368E-06    -49.5005E-06    -49.5000E-06     100.000E-06     180.837E-12     365.707E-12     89.8253E-12     100.000E-06     100.000E-06    -49.2637E-06    -49.7368E-06    -49.5005E-06    -49.5000E-06     100.000E-06     180.837E-12     365.707E-12     89.8253E-12         1.00001         1.00000         1.00000     1.58200E-03    -1.58305E-03         1.00159    -333.334E-03     999.990E-03    -2.08104E-06     1.04090E-06         1.00000     604.807E-09     1.22310E-06     300.419E-09
             238              0.              0.              0.              0.     1.15723E-03    -79.9753E-06     19.0679E-06     1.15430E-03     100.000E-06     100.000E-06    -49.2637E-06    -49.7368E-06    -49.5005E-06    -49.5000E-06     100.000E-06    -180.837E-12     365.707E-12    -89.8252E-12     100.000E-06     100.000E-06    -49.2637E-06    -49.7368E-06    -49.5005E-06    -49.5000E-06     100.000E-06    -180.837E-12     365.707E-12    -89.8252E-12         1.00001         1.00000         1.00000     1.58200E-03    -1.58305E-03         1.00159    -333.334E-03     999.990E-03    -2.08104E-06     1.04090E-06         1.00000    -604.807E-09     1.22310E-06    -300.419E-09
             239              0.              0.              0.              0.     1.15894E-03    -79.9365E-06     79.9365E-06     1.15341E-03     100.001E-06     100.001E-06    -49.2621E-06    -49.7384E-06    -49.5003E-06    -49.5003E-06     100.000E-06    -194.194E-12     397.324E-12    -397.324E-12     100.001E-06     100.001E-06    -49.2621E-06    -49.7384E-06    -49.5003E-06    -49.5003E-06     100.000E-06    -194.194E-12     397.324E-12    -397.324E-12         1.00001         1.00000         1.00000     1.59101E-03    -1.59559E-03         1.00160    -333.333E-03     999.990E-03    -2.27749E-06    -2.27749E-06         1.00000    -649.478E-09     1.32884E-06    -1.32884E-06
             240              0.              0.              0.              0.     1.16400E-03    -80.5340E-06     118.076E-06     1.15519E-03     100.026E-06     100.026E-06    -49.2741E-06    -49.7529E-06    -49.5002E-06    -49.5268E-06     100.026E-06    -26.7134E-12     883.893E-12    -614.997E-12     100.026E-06     100.026E-06    -49.2741E-06    -49.7529E-06    -49.5002E-06    -49.5268E-06     100.026E-06    -26.7134E-12     883.893E-12    -614.997E-12         1.00028     999.994E-03     999.994E-03     1.32788E-03    -1.87482E-03         1.00187    -333.149E-03         1.00025    -184.584E-06    -362.334E-06     999.994E-03    -89.3428E-09     2.95616E-06    -2.05685E-06
             241              0.              0.              0.              0.     1.06441E-03    -67.4475E-06    -129.911E-06     1.05429E-03     99.9700E-06     99.9700E-06    -49.2167E-06    -49.7527E-06    -49.4992E-06    -49.4702E-06     99.9700E-06     791.553E-12    -1.85284E-09    -452.011E-12     99.9700E-06     99.9700E-06    -49.2167E-06    -49.7527E-06    -49.4992E-06    -49.4702E-06     99.9700E-06     791.553E-12    -1.85284E-09    -452.011E-12     999.707E-03     999.998E-03     999.998E-03     2.09367E-03    -1.49203E-03         1.00149    -333.533E-03     999.678E-03     203.651E-06     398.028E-06     999.998E-03     2.64733E-06    -6.19678E-06    -1.51174E-06
             242              0.              0.              0.              0.     1.06066E-03    -68.0753E-06    -68.0753E-06     1.05628E-03     99.9986E-06     99.9986E-06    -49.2326E-06    -49.7660E-06    -49.4993E-06    -49.4993E-06     99.9986E-06     743.549E-12    -974.452E-12    -974.452E-12     99.9986E-06     99.9986E-06    -49.2326E-06    -49.7660E-06    -49.4993E-06    -49.4993E-06     99.9986E-06     743.549E-12    -974.452E-12    -974.452E-12     999.995E-03     999.997E-03     999.997E-03     1.79529E-03    -1.77286E-03         1.00177    -333.340E-03     999.967E-03     11.2311E-06     11.2311E-06     999.997E-03     2.48679E-06    -3.25904E-06    -3.25904E-06
             243              0.              0.              0.              0.     1.05792E-03    -68.0244E-06    -30.9201E-06     1.05528E-03     99.9984E-06     99.9984E-06    -49.2343E-06    -49.7640E-06    -49.4990E-06    -49.4993E-06     99.9984E-06     347.773E-12    -403.687E-12    -748.446E-12     99.9984E-06     99.9984E-06    -49.2343E-06    -49.7640E-06    -49.4990E-06    -49.4993E-06     99.9984E-06     347.773E-12    -403.687E-12    -748.446E-12     999.993E-03     999.998E-03     999.998E-03     1.78622E-03    -1.75687E-03         1.00176    -333.343E-03     999.965E-03     15.6663E-06     13.7061E-06     999.998E-03     1.16312E-06    -1.35012E-06    -2.50317E-06
             244              0.              0.              0.              0.     1.05792E-03    -68.0244E-06     30.9201E-06     1.05528E-03     99.9984E-06     99.9984E-06    -49.2343E-06    -49.7640E-06    -49.4990E-06    -49.4993E-06     99.9984E-06    -347.773E-12    -403.687E-12     748.446E-12     99.9984E-06     99.9984E-06    -49.2343E-06    -49.7640E-06    -49.4990E-06    -49.4993E-06     99.9984E-06    -347.773E-12    -403.687E-12     748.446E-12     999.993E-03     999.998E-03     999.998E-03     1.78622E-03    -1.75687E-03         1.00176    -333.343E-03     999.965E-03     15.6663E-06     13.7061E-06     999.998E-03    -1.16312E-06    -1.35012E-06     2.50317E-06
             245              0.              0.              0.              0.     1.06066E-03    -68.0753E-06     68.0753E-06     1.05628E-03     99.9986E-06     99.9986E-06    -49.2326E-06    -49.7660E-06    -49.4993E-06    -49.4993E-06     99.9986E-06    -743.549E-12    -974.452E-12     974.452E-12     99.9986E-06     99.9986E-06    -49.2326E-06    -49.7660E-06    -49.4993E-06    -49.4993E-06     99.9986E-06    -743.549E-12    -974.452E-12     974.452E-12     999.995E-03     999.997E-03     999.997E-03     1.79529E-03    -1.77286E-03         1.00177    -333.340E-03     999.967E-03     11.2311E-06     11.2311E-06     999.997E-03    -2.48679E-06    -3.25904E-06     3.25904E-06
             246              0.              0.              0.              0.     1.06441E-03    -67.4475E-06     129.911E-06     1.05429E-03     99.9700E-06     99.9700E-06    -49.2167E-06    -49.7527E-06    -49.4992E-06    -49.4702E-06     99.9700E-06    -791.553E-12    -1.85284E-09     452.011E-12     99.9700E-06     99.9700E-06    -49.2167E-06    -49.7527E-06    -49.4992E-06    -49.4702E-06     99.9700E-06    -791.553E-12    -1.85284E-09     452.011E-12     999.707E-03     999.998E-03     999.998E-03     2.09367E-03    -1.49203E-03         1.00149    -333.533E-03     999.678E-03     203.651E-06     398.028E-06     999.998E-03    -2.64733E-06    -6.19678E-06     1.51174E-06
             247              0.              0.              0.              0.     965.907E-06    -81.6239E-06    -117.040E-06     955.309E-06     100.031E-06     100.031E-06    -49.2149E-06    -49.8172E-06    -49.4988E-06    -49.5333E-06     100.031E-06    -313.699E-12    -5.28826E-09    -7.46508E-09     100.031E-06     100.031E-06    -49.2149E-06    -49.8172E-06    -49.4988E-06    -49.5333E-06     100.031E-06    -313.699E-12    -5.28826E-09    -7.46508E-09         1.00033         1.00002         1.00002     1.71660E-03    -2.31227E-03         1.00233    -333.141E-03         1.00029    -182.534E-06    -413.099E-06         1.00002    -1.04916E-06    -17.6865E-06    -24.9668E-06
             248              0.              0.              0.              0.     959.920E-06    -80.9664E-06    -80.9664E-06     953.067E-06     99.9980E-06     99.9980E-06    -49.1993E-06    -49.7986E-06    -49.4990E-06    -49.4990E-06     99.9980E-06     82.7279E-12    -6.20065E-09    -6.20065E-09     99.9980E-06     99.9980E-06    -49.1993E-06    -49.7986E-06    -49.4990E-06    -49.4990E-06     99.9980E-06     82.7279E-12    -6.20065E-09    -6.20065E-09     999.991E-03         1.00000         1.00000     2.02885E-03    -1.97951E-03         1.00198    -333.351E-03     999.956E-03     24.6829E-06     24.6829E-06         1.00000     276.681E-09    -20.7379E-06    -20.7379E-06
             249              0.              0.              0.              0.     957.804E-06    -81.0325E-06    -18.0300E-06     954.199E-06     99.9961E-06     99.9961E-06    -49.2009E-06    -49.7951E-06    -49.4998E-06    -49.4962E-06     99.9960E-06     239.577E-12    -6.47978E-09    -2.46810E-09     99.9961E-06     99.9961E-06    -49.2009E-06    -49.7951E-06    -49.4998E-06    -49.4962E-06     99.9960E-06     239.577E-12    -6.47978E-09    -2.46810E-09     999.972E-03     999.993E-03     999.993E-03     2.02027E-03    -1.95413E-03         1.00195    -333.353E-03     999.937E-03     20.8725E-06     45.2885E-06     999.993E-03     801.262E-09    -21.6715E-06    -8.25453E-06
             250              0.              0.              0.              0.     957.804E-06    -81.0325E-06     18.0300E-06     954.199E-06     99.9961E-06     99.9961E-06    -49.2009E-06    -49.7951E-06    -49.4998E-06    -49.4962E-06     99.9960E-06    -239.577E-12    -6.47978E-09     2.46810E-09     99.9961E-06     99.9961E-06    -49.2009E-06    -49.7951E-06    -49.4998E-06    -49.4962E-06     99.9960E-06    -239.577E-12    -6.47978E-09     2.46810E-09     999.972E-03     999.993E-03     999.993E-03     2.02027E-03    -1.95413E-03         1.00195    -333.353E-03     999.937E-03     20.8725E-06     45.2885E-06     999.993E-03    -801.262E-09    -21.6715E-06     8.25453E-06
             251              0.              0.              0.              0.     959.920E-06    -80.9664E-06     80.9664E-06     953.067E-06     99.9980E-06     99.9980E-06    -49.1993E-06    -49.7986E-06    -49.4990E-06    -49.4990E-06     99.9980E-06    -82.7279E-12    -6.20065E-09     6.20065E-09     99.9980E-06     99.9980E-06    -49.1993E-06    -49.7986E-06    -49.4990E-06    -49.4990E-06     99.9980E-06    -82.7279E-12    -6.20065E-09     6.20065E-09     999.991E-03         1.00000         1.00000     2.02885E-03    -1.97951E-03         1.00198    -333.351E-03     999.956E-03     24.6829E-06     24.6829E-06         1.00000    -276.681E-09    -20.7379E-06     20.7379E-06
             252              0.              0.              0.              0.     965.907E-06    -81.6239E-06     117.040E-06     955.309E-06     100.031E-06     100.031E-06    -49.2149E-06    -49.8172E-06    -49.4988E-06    -49.5333E-06     100.031E-06     313.699E-12    -5.28826E-09     7.46508E-09     100.031E-06     100.031E-06    -49.2149E-06    -49.8172E-06    -49.4988E-06    -49.5333E-06     100.031E-06     313.699E-12    -5.28826E-09     7.46508E-09         1.00033         1.00002         1.00002     1.71660E-03    -2.31227E-03         1.00233    -333.141E-03         1.00029    -182.534E-06    -413.099E-06         1.00002     1.04916E-06    -17.6865E-06     24.9668E-06
             253              0.              0.              0.              0.     866.679E-06    -66.2201E-06    -131.049E-06     854.150E-06     99.9761E-06     99.9761E-06    -49.1522E-06    -49.8231E-06    -49.5026E-06    -49.4727E-06     99.9761E-06    -1.15344E-09    -24.5123E-09    -8.09296E-09     99.9761E-06     99.9761E-06    -49.1522E-06    -49.8231E-06    -49.5026E-06    -49.4727E-06     99.9761E-06    -1.15344E-09    -24.5123E-09    -8.09296E-09     999.772E-03         1.00012         1.00012     2.60758E-03    -1.87971E-03         1.00200    -333.616E-03     999.728E-03     263.979E-06     463.941E-06         1.00012    -3.85766E-06    -81.9811E-06    -27.0668E-06
             254              0.              0.              0.              0.     861.897E-06    -66.9047E-06    -66.9047E-06     856.688E-06     100.004E-06     100.004E-06    -49.1691E-06    -49.8342E-06    -49.5017E-06    -49.5017E-06     100.004E-06    -3.48562E-09    -24.0978E-09    -24.0978E-09     100.004E-06     100.004E-06    -49.1691E-06    -49.8342E-06    -49.5017E-06    -49.5017E-06     100.004E-06    -3.48562E-09    -24.0978E-09    -24.0978E-09         1.00005         1.00009         1.00009     2.27790E-03    -2.17060E-03         1.00226    -333.399E-03         1.00001     53.6785E-06     53.6785E-06         1.00009    -11.6576E-06    -80.5946E-06    -80.5946E-06
             255              0.              0.              0.              0.     858.611E-06    -66.8257E-06    -32.0791E-06     855.405E-06     99.9850E-06     99.9850E-06    -49.1600E-06    -49.8248E-06    -49.4994E-06    -49.4854E-06     99.9850E-06    -2.90890E-09    -27.3752E-09    -20.0513E-09     99.9850E-06     99.9850E-06    -49.1600E-06    -49.8248E-06    -49.4994E-06    -49.4854E-06     99.9850E-06    -2.90890E-09    -27.3752E-09    -20.0513E-09     999.863E-03     999.961E-03     999.961E-03     2.33651E-03    -2.11076E-03         1.00207    -333.396E-03     999.820E-03     66.2800E-06     159.529E-06     999.961E-03    -9.72877E-06    -91.5558E-06    -67.0612E-06
             256              0.              0.              0.              0.     858.611E-06    -66.8257E-06     32.0791E-06     855.405E-06     99.9850E-06     99.9850E-06    -49.1600E-06    -49.8248E-06    -49.4994E-06    -49.4854E-06     99.9850E-06     2.90890E-09    -27.3752E-09     20.0513E-09     99.9850E-06     99.9850E-06    -49.1600E-06    -49.8248E-06    -49.4994E-06    -49.4854E-06     99.9850E-06     2.90890E-09    -27.3752E-09     20.0513E-09     999.863E-03     999.961E-03     999.961E-03     2.33651E-03    -2.11076E-03         1.00207    -333.396E-03     999.820E-03     66.2800E-06     159.529E-06     999.961E-03     9.72877E-06    -91.5558E-06     67.0612E-06
             257              0.              0.              0.              0.     861.897E-06    -66.9047E-06     66.9047E-06     856.688E-06     100.004E-06     100.004E-06    -49.1691E-06    -49.8342E-06    -49.5017E-06    -49.5017E-06     100.004E-06     3.48562E-09    -24.0978E-09     24.0978E-09     100.004E-06     100.004E-06    -49.1691E-06    -49.8342E-06    -49.5017E-06    -49.5017E-06     100.004E-06     3.48562E-09    -24.0978E-09     24.0978E-09         1.00005         1.00009         1.00009     2.27790E-03    -2.17060E-03         1.00226    -333.399E-03         1.00001     53.6785E-06     53.6785E-06         1.00009     11.6576E-06    -80.5946E-06     80.5946E-06
             258              0.              0.              0.              0.     866.679E-06    -66.2201E-06     131.049E-06     854.150E-06     99.9761E-06     99.9761E-06    -49.1522E-06    -49.8231E-06    -49.5026E-06    -49.4727E-06     99.9761E-06     1.15344E-09    -24.5123E-09     8.09296E-09     99.9761E-06     99.9761E-06    -49.1522E-06    -49.8231E-06    -49.5026E-06    -49.4727E-06     99.9761E-06     1.15344E-09    -24.5123E-09     8.09296E-09     999.772E-03         1.00012         1.00012     2.60758E-03    -1.87971E-03         1.00200    -333.616E-03     999.728E-03     263.979E-06     463.941E-06         1.00012     3.85766E-06    -81.9811E-06     27.0668E-06
             259              0.              0.              0.              0.     768.749E-06    -82.9348E-06    -115.767E-06     755.444E-06     100.049E-06     100.049E-06    -49.1401E-06    -49.9091E-06    -49.4971E-06    -49.5521E-06     100.049E-06    -15.9986E-09    -41.6790E-09    -64.3090E-09     100.049E-06     100.049E-06    -49.1401E-06    -49.9091E-06    -49.4971E-06    -49.5521E-06     100.049E-06    -15.9986E-09    -41.6790E-09    -64.3090E-09         1.00051         1.00036         1.00036     2.44052E-03    -2.70385E-03         1.00307    -333.366E-03         1.00046     52.3028E-06    -315.471E-06         1.00036    -53.5070E-06    -139.395E-06    -215.080E-06
             260              0.              0.              0.              0.     761.491E-06    -82.2359E-06    -82.2359E-06     752.558E-06     99.9879E-06     99.9879E-06    -49.1135E-06    -49.8738E-06    -49.4937E-06    -49.4937E-06     99.9878E-06    -15.3694E-09    -46.8774E-09    -46.8774E-09     99.9879E-06     99.9879E-06    -49.1135E-06    -49.8738E-06    -49.4937E-06    -49.4937E-06     99.9878E-06    -15.3694E-09    -46.8774E-09    -46.8774E-09     999.895E-03         1.00010         1.00010     2.76331E-03    -2.32246E-03         1.00242    -333.513E-03     999.839E-03     220.506E-06     220.506E-06         1.00010    -51.4026E-06    -156.780E-06    -156.780E-06
             261              0.              0.              0.              0.     758.760E-06    -82.3059E-06    -16.6886E-06     754.098E-06     99.9696E-06     99.9696E-06    -49.1065E-06    -49.8630E-06    -49.4898E-06    -49.4797E-06     99.9696E-06    -7.37007E-09    -50.6428E-09    -14.7229E-09     99.9696E-06     99.9696E-06    -49.1065E-06    -49.8630E-06    -49.4898E-06    -49.4797E-06     99.9696E-06    -7.37007E-09    -50.6428E-09    -14.7229E-09     999.713E-03     999.843E-03     999.843E-03     2.67883E-03    -2.38132E-03         1.00222    -333.380E-03     999.657E-03     115.194E-06     182.420E-06     999.843E-03    -24.6491E-06    -169.374E-06    -49.2403E-06
             262              0.              0.              0.              0.     758.760E-06    -82.3059E-06     16.6886E-06     754.098E-06     99.9696E-06     99.9696E-06    -49.1065E-06    -49.8630E-06    -49.4898E-06    -49.4797E-06     99.9696E-06     7.37007E-09    -50.6428E-09     14.7229E-09     99.9696E-06     99.9696E-06    -49.1065E-06    -49.8630E-06    -49.4898E-06    -49.4797E-06     99.9696E-06     7.37007E-09    -50.6428E-09     14.7229E-09     999.713E-03     999.843E-03     999.843E-03     2.67883E-03    -2.38132E-03         1.00222    -333.380E-03     999.657E-03     115.194E-06     182.420E-06     999.843E-03     24.6491E-06    -169.374E-06     49.2403E-06
             263              0.              0.              0.              0.     761.491E-06    -82.2359E-06     82.2359E-06     752.558E-06     99.9879E-06     99.9879E-06    -49.1135E-06    -49.8738E-06    -49.4937E-06    -49.4937E-06     99.9878E-06     15.3694E-09    -46.8774E-09     46.8774E-09     99.9879E-06     99.9879E-06    -49.1135E-06    -49.8738E-06    -49.4937E-06    -49.4937E-06     99.9878E-06     15.3694E-09    -46.8774E-09     46.8774E-09     999.895E-03         1.00010         1.00010     2.76331E-03    -2.32246E-03         1.00242    -333.513E-03     999.839E-03     220.506E-06     220.506E-06         1.00010     51.4026E-06    -156.780E-06     156.780E-06
             264              0.              0.              0.              0.     768.749E-06    -82.9348E-06     115.767E-06     755.444E-06     100.049E-06     100.049E-06    -49.1401E-06    -49.9091E-06    -49.4971E-06    -49.5521E-06     100.049E-06     15.9986E-09    -41.6790E-09     64.3090E-09     100.049E-06     100.049E-06    -49.1401E-06    -49.9091E-06    -49.4971E-06    -49.5521E-06     100.049E-06     15.9986E-09    -41.6790E-09     64.3090E-09         1.00051         1.00036         1.00036     2.44052E-03    -2.70385E-03         1.00307    -333.366E-03         1.00046     52.3028E-06    -315.471E-06         1.00036     53.5070E-06    -139.395E-06     215.080E-06
             265              0.              0.              0.              0.     670.273E-06    -64.7284E-06    -132.409E-06     653.869E-06     100.057E-06     100.057E-06    -49.1006E-06    -49.9558E-06    -49.5402E-06    -49.5161E-06     100.057E-06    -29.0118E-09    -40.1212E-09     7.88744E-09     100.057E-06     100.057E-06    -49.1006E-06    -49.9558E-06    -49.5402E-06    -49.5161E-06     100.057E-06    -29.0118E-09    -40.1212E-09     7.88744E-09         1.00059         1.00066         1.00066     2.94550E-03    -2.77524E-03         1.00343    -333.609E-03         1.00053     4.72355E-06     165.894E-06         1.00066    -97.0295E-06    -134.184E-06     26.3794E-06
             266              0.              0.              0.              0.     663.819E-06    -65.4191E-06    -65.4191E-06     657.340E-06     100.070E-06     100.070E-06    -49.1059E-06    -49.9640E-06    -49.5349E-06    -49.5349E-06     100.070E-06    -46.9083E-09    -50.3940E-09    -50.3940E-09     100.070E-06     100.070E-06    -49.1059E-06    -49.9640E-06    -49.5349E-06    -49.5349E-06     100.070E-06    -46.9083E-09    -50.3940E-09    -50.3940E-09         1.00072         1.00035         1.00035     2.51936E-03    -3.22037E-03         1.00357    -333.216E-03         1.00065    -350.211E-06    -350.211E-06         1.00035    -156.884E-06    -168.542E-06    -168.542E-06
             267              0.              0.              0.              0.     659.762E-06    -65.3102E-06    -33.6069E-06     655.661E-06     100.004E-06     100.004E-06    -49.0574E-06    -49.9468E-06    -49.5265E-06    -49.4777E-06     100.004E-06    -32.4024E-09    -86.3839E-09    -54.3377E-09     100.004E-06     100.004E-06    -49.0574E-06    -49.9468E-06    -49.5265E-06    -49.4777E-06     100.004E-06    -32.4024E-09    -86.3839E-09    -54.3377E-09         1.00006     999.801E-03     999.801E-03     2.73724E-03    -3.21202E-03         1.00301    -333.109E-03     999.990E-03    -400.088E-06    -74.1329E-06     999.800E-03    -108.369E-06    -288.909E-06    -181.732E-06
             268              0.              0.              0.              0.     659.762E-06    -65.3102E-06     33.6069E-06     655.661E-06     100.004E-06     100.004E-06    -49.0574E-06    -49.9468E-06    -49.5265E-06    -49.4777E-06     100.004E-06     32.4024E-09    -86.3839E-09     54.3377E-09     100.004E-06     100.004E-06    -49.0574E-06    -49.9468E-06    -49.5265E-06    -49.4777E-06     100.004E-06     32.4024E-09    -86.3839E-09     54.3377E-09         1.00006     999.801E-03     999.801E-03     2.73724E-03    -3.21202E-03         1.00301    -333.109E-03     999.990E-03    -400.088E-06    -74.1329E-06     999.800E-03     108.369E-06    -288.909E-06     181.732E-06
             269              0.              0.              0.              0.     663.819E-06    -65.4191E-06     65.4191E-06     657.340E-06     100.070E-06     100.070E-06    -49.1059E-06    -49.9640E-06    -49.5349E-06    -49.5349E-06     100.070E-06     46.9083E-09    -50.3940E-09     50.3940E-09     100.070E-06     100.070E-06    -49.1059E-06    -49.9640E-06    -49.5349E-06    -49.5349E-06     100.070E-06     46.9083E-09    -50.3940E-09     50.3940E-09         1.00072         1.00035         1.00035     2.51936E-03    -3.22037E-03         1.00357    -333.216E-03         1.00065    -350.211E-06    -350.211E-06         1.00035     156.884E-06    -168.542E-06     168.542E-06
             270              0.              0.              0.              0.     670.273E-06    -64.7284E-06     132.409E-06     653.869E-06     100.057E-06     100.057E-06    -49.1006E-06    -49.9558E-06    -49.5402E-06    -49.5161E-06     100.057E-06     29.0118E-09    -40.1212E-09    -7.88744E-09     100.057E-06     100.057E-06    -49.1006E-06    -49.9558E-06    -49.5402E-06    -49.5161E-06     100.057E-06     29.0118E-09    -40.1212E-09    -7.88744E-09         1.00059         1.00066         1.00066     2.94550E-03    -2.77524E-03         1.00343    -333.609E-03         1.00053     4.72355E-06     165.894E-06         1.00066     97.0295E-06    -134.184E-06    -26.3794E-06
             271              0.              0.              0.              0.     573.450E-06    -84.6482E-06    -114.528E-06     555.485E-06     100.072E-06     100.072E-06    -49.0888E-06    -49.9833E-06    -49.5453E-06    -49.5266E-06     100.071E-06    -80.0524E-09     173.054E-09     57.2973E-09     100.072E-06     100.072E-06    -49.0888E-06    -49.9833E-06    -49.5453E-06    -49.5266E-06     100.071E-06    -80.0524E-09     173.054E-09     57.2973E-09         1.00074         1.00036         1.00036     2.63120E-03    -3.35241E-03         1.00371    -333.213E-03         1.00067    -422.147E-06    -297.431E-06         1.00036    -267.734E-06     578.775E-06     191.630E-06
             272              0.              0.              0.              0.     564.348E-06    -84.0112E-06    -84.0112E-06     551.700E-06     100.048E-06     100.048E-06    -49.0858E-06    -49.9630E-06    -49.5241E-06    -49.5241E-06     100.048E-06    -77.4374E-09     152.948E-09     152.948E-09     100.048E-06     100.048E-06    -49.0858E-06    -49.9630E-06    -49.5241E-06    -49.5241E-06     100.048E-06    -77.4374E-09     152.948E-09     152.948E-09         1.00051         1.00013         1.00013     2.57631E-03    -3.29095E-03         1.00342    -333.138E-03         1.00044    -355.463E-06    -355.463E-06         1.00012    -258.988E-06     511.532E-06     511.532E-06
             273              0.              0.              0.              0.     560.387E-06    -83.9367E-06    -14.9225E-06     553.864E-06     100.121E-06     100.121E-06    -49.0241E-06    -50.0994E-06    -49.4908E-06    -49.6321E-06     100.120E-06    -37.4112E-09     145.583E-09     124.299E-09     100.121E-06     100.121E-06    -49.0241E-06    -50.0994E-06    -49.4908E-06    -49.6321E-06     100.120E-06    -37.4112E-09     145.583E-09     124.299E-09         1.00125     999.837E-03     999.837E-03     2.21402E-03    -4.97919E-03         1.00482    -332.357E-03         1.00115    -907.992E-06    -1.85293E-03     999.833E-03    -125.121E-06     486.899E-06     415.717E-06
             274              0.              0.              0.              0.     560.387E-06    -83.9367E-06     14.9225E-06     553.864E-06     100.121E-06     100.121E-06    -49.0241E-06    -50.0994E-06    -49.4908E-06    -49.6321E-06     100.120E-06     37.4112E-09     145.583E-09    -124.299E-09     100.121E-06     100.121E-06    -49.0241E-06    -50.0994E-06    -49.4908E-06    -49.6321E-06     100.120E-06     37.4112E-09     145.583E-09    -124.299E-09         1.00125     999.837E-03     999.837E-03     2.21402E-03    -4.97919E-03         1.00482    -332.357E-03         1.00115    -907.992E-06    -1.85293E-03     999.833E-03     125.121E-06     486.899E-06    -415.717E-06
             275              0.              0.              0.              0.     564.348E-06    -84.0112E-06     84.0112E-06     551.700E-06     100.048E-06     100.048E-06    -49.0858E-06    -49.9630E-06    -49.5241E-06    -49.5241E-06     100.048E-06     77.4374E-09     152.948E-09    -152.948E-09     100.048E-06     100.048E-06    -49.0858E-06    -49.9630E-06    -49.5241E-06    -49.5241E-06     100.048E-06     77.4374E-09     152.948E-09    -152.948E-09         1.00051         1.00013         1.00013     2.57631E-03    -3.29095E-03         1.00342    -333.138E-03         1.00044    -355.463E-06    -355.463E-06         1.00012     258.988E-06     511.532E-06    -511.532E-06
             276              0.              0.              0.              0.     573.450E-06    -84.6482E-06     114.528E-06     555.485E-06     100.072E-06     100.072E-06    -49.0888E-06    -49.9833E-06    -49.5453E-06    -49.5266E-06     100.071E-06     80.0524E-09     173.054E-09    -57.2973E-09     100.072E-06     100.072E-06    -49.0888E-06    -49.9833E-06    -49.5453E-06    -49.5266E-06     100.071E-06     80.0524E-09     173.054E-09    -57.2973E-09         1.00074         1.00036         1.00036     2.63120E-03    -3.35241E-03         1.00371    -333.213E-03         1.00067    -422.147E-06    -297.431E-06         1.00036     267.734E-06     578.775E-06    -191.630E-06
             277              0.              0.              0.              0.     477.174E-06    -63.6990E-06    -134.263E-06     453.443E-06     99.9114E-06     99.9114E-06    -48.8758E-06    -50.0451E-06    -49.5927E-06    -49.3234E-06     99.9066E-06     8.14345E-09     1.05652E-06     718.884E-09     99.9114E-06     99.9114E-06    -48.8758E-06    -50.0451E-06    -49.5927E-06    -49.3234E-06     99.9066E-06     8.14345E-09     1.05652E-06     718.884E-09     999.184E-03     996.258E-03     996.258E-03     1.02541E-03    -6.79583E-03         1.00305    -330.162E-03     999.060E-03    -3.76981E-03    -1.96842E-03     996.226E-03     27.2356E-06     3.53350E-03     2.40429E-03
             278              0.              0.              0.              0.     467.042E-06    -64.1674E-06    -64.1674E-06     458.142E-06     100.222E-06     100.222E-06    -49.0503E-06    -50.1844E-06    -49.6143E-06    -49.6143E-06     100.216E-06     6.16696E-09     1.06133E-06     1.06133E-06     100.222E-06     100.222E-06    -49.0503E-06    -50.1844E-06    -49.6143E-06    -49.6143E-06     100.216E-06     6.16696E-09     1.06133E-06     1.06133E-06         1.00231     997.234E-03     997.234E-03    -1.24124E-03    -8.82710E-03         1.00606    -329.055E-03         1.00219    -5.01428E-03    -5.01428E-03     997.194E-03     20.6253E-06     3.54961E-03     3.54961E-03
             279              0.              0.              0.              0.     461.737E-06    -64.1606E-06    -36.0574E-06     455.834E-06     100.804E-06     100.804E-06    -49.2472E-06    -50.5687E-06    -49.6562E-06    -50.1548E-06     100.799E-06     2.09524E-09     1.07265E-06     701.893E-09     100.804E-06     100.804E-06    -49.2472E-06    -50.5687E-06    -49.6562E-06    -50.1548E-06     100.799E-06     2.09524E-09     1.07265E-06     701.893E-09         1.00815         1.00132         1.00132    -2.36623E-03    -11.2059E-03         1.01252    -329.249E-03         1.00802    -5.10235E-03    -8.43728E-03         1.00129     7.00749E-06     3.58747E-03     2.34747E-03
             280              0.              0.              0.              0.     461.737E-06    -64.1606E-06     36.0574E-06     455.834E-06     100.804E-06     100.804E-06    -49.2472E-06    -50.5687E-06    -49.6562E-06    -50.1548E-06     100.799E-06    -2.09524E-09     1.07265E-06    -701.893E-09     100.804E-06     100.804E-06    -49.2472E-06    -50.5687E-06    -49.6562E-06    -50.1548E-06     100.799E-06    -2.09524E-09     1.07265E-06    -701.893E-09         1.00815         1.00132         1.00132    -2.36623E-03    -11.2059E-03         1.01252    -329.249E-03         1.00802    -5.10235E-03    -8.43728E-03         1.00129    -7.00749E-06     3.58747E-03    -2.34747E-03
             281              0.              0.              0.              0.     467.042E-06    -64.1674E-06     64.1674E-06     458.142E-06     100.222E-06     100.222E-06    -49.0503E-06    -50.1844E-06    -49.6143E-06    -49.6143E-06     100.216E-06    -6.16696E-09     1.06133E-06    -1.06133E-06     100.222E-06     100.222E-06    -49.0503E-06    -50.1844E-06    -49.6143E-06    -49.6143E-06     100.216E-06    -6.16696E-09     1.06133E-06    -1.06133E-06         1.00231     997.234E-03     997.234E-03    -1.24124E-03    -8.82710E-03         1.00606    -329.055E-03         1.00219    -5.01428E-03    -5.01428E-03     997.194E-03    -20.6253E-06     3.54961E-03    -3.54961E-03
             282              0.              0.              0.              0.     477.174E-06    -63.6990E-06     134.263E-06     453.443E-06     99.9114E-06     99.9114E-06    -48.8758E-06    -50.0451E-06    -49.5927E-06    -49.3234E-06     99.9066E-06    -8.14345E-09     1.05652E-06    -718.884E-09     99.9114E-06     99.9114E-06    -48.8758E-06    -50.0451E-06    -49.5927E-06    -49.3234E-06     99.9066E-06    -8.14345E-09     1.05652E-06    -718.884E-09     999.184E-03     996.258E-03     996.258E-03     1.02541E-03    -6.79583E-03         1.00305    -330.162E-03     999.060E-03    -3.76981E-03    -1.96842E-03     996.226E-03    -27.2356E-06     3.53350E-03    -2.40429E-03
             283              0.              0.              0.              0.     384.798E-06    -88.3959E-06    -114.525E-06     356.567E-06     99.2336E-06     99.2336E-06    -48.4943E-06    -49.7771E-06    -49.6610E-06    -48.5699E-06     99.1931E-06     402.446E-09     3.08173E-06     3.09465E-06     99.2336E-06     99.2336E-06    -48.4943E-06    -49.7771E-06    -49.6610E-06    -48.5699E-06     99.1931E-06     402.446E-09     3.08173E-06     3.09465E-06     992.481E-03     982.382E-03     982.382E-03    -5.76462E-03    -14.3451E-03     996.727E-03    -320.757E-03     992.347E-03    -13.5687E-03    -6.27017E-03     982.111E-03     1.34597E-03     10.3068E-03     10.3500E-03
             284              0.              0.              0.              0.     373.576E-06    -88.0745E-06    -88.0745E-06     352.200E-06     100.519E-06     100.519E-06    -49.0623E-06    -50.4840E-06    -49.7524E-06    -49.7524E-06     100.478E-06     524.619E-09     3.19692E-06     3.19692E-06     100.519E-06     100.519E-06    -49.0623E-06    -50.4840E-06    -49.7524E-06    -49.7524E-06     100.478E-06     524.619E-09     3.19692E-06     3.19692E-06         1.00535     994.443E-03     994.443E-03    -6.10118E-03    -15.6108E-03         1.01005    -324.244E-03         1.00520    -10.7171E-03    -10.7171E-03     994.165E-03     1.75458E-03     10.6920E-03     10.6920E-03
             285              0.              0.              0.              0.     363.100E-06    -88.1785E-06    -13.7778E-06     351.961E-06     102.121E-06     102.121E-06    -49.5724E-06    -51.5689E-06    -49.8689E-06    -51.2362E-06     102.085E-06     323.396E-09     3.51359E-06     1.64959E-06     102.121E-06     102.121E-06    -49.5724E-06    -51.5689E-06    -49.8689E-06    -51.2362E-06     102.085E-06     323.396E-09     3.51359E-06     1.64959E-06         1.02143         1.00751         1.00751    -7.15914E-03    -20.5138E-03         1.02803    -326.613E-03         1.02118    -9.14282E-03    -18.2881E-03         1.00727     1.08159E-03     11.7511E-03     5.51703E-03
             286              0.              0.              0.              0.     363.100E-06    -88.1785E-06     13.7778E-06     351.961E-06     102.121E-06     102.121E-06    -49.5724E-06    -51.5689E-06    -49.8689E-06    -51.2362E-06     102.085E-06    -323.396E-09     3.51359E-06    -1.64959E-06     102.121E-06     102.121E-06    -49.5724E-06    -51.5689E-06    -49.8689E-06    -51.2362E-06     102.085E-06    -323.396E-09     3.51359E-06    -1.64959E-06         1.02143         1.00751         1.00751    -7.15914E-03    -20.5138E-03         1.02803    -326.613E-03         1.02118    -9.14282E-03    -18.2881E-03         1.00727    -1.08159E-03     11.7511E-03    -5.51703E-03
             287              0.              0.              0.              0.     373.576E-06    -88.0745E-06     88.0745E-06     352.200E-06     100.519E-06     100.519E-06    -49.0623E-06    -50.4840E-06    -49.7524E-06    -49.7524E-06     100.478E-06    -524.619E-09     3.19692E-06    -3.19692E-06     100.519E-06     100.519E-06    -49.0623E-06    -50.4840E-06    -49.7524E-06    -49.7524E-06     100.478E-06    -524.619E-09     3.19692E-06    -3.19692E-06         1.00535     994.443E-03     994.443E-03    -6.10118E-03    -15.6108E-03         1.01005    -324.244E-03         1.00520    -10.7171E-03    -10.7171E-03     994.165E-03    -1.75458E-03     10.6920E-03    -10.6920E-03
             288              0.              0.              0.              0.     384.798E-06    -88.3959E-06     114.525E-06     356.567E-06     99.2336E-06     99.2336E-06    -48.4943E-06    -49.7771E-06    -49.6610E-06    -48.5699E-06     99.1931E-06    -402.446E-09     3.08173E-06    -3.09465E-06     99.2336E-06     99.2336E-06    -48.4943E-06    -49.7771E-06    -49.6610E-06    -48.5699E-06     99.1931E-06    -402.446E-09     3.08173E-06    -3.09465E-06     992.481E-03     982.382E-03     982.382E-03    -5.76462E-03    -14.3451E-03     996.727E-03    -320.757E-03     992.347E-03    -13.5687E-03    -6.27017E-03     982.111E-03    -1.34597E-03     10.3068E-03    -10.3500E-03
             289              0.              0.              0.              0.     299.032E-06    -66.0076E-06    -137.724E-06     257.090E-06     95.3840E-06     95.3840E-06    -45.7833E-06    -48.6604E-06    -48.0630E-06    -46.2317E-06     95.2351E-06     1.90864E-06     6.36733E-06     3.62658E-06     95.3840E-06     95.3840E-06    -45.7833E-06    -48.6604E-06    -48.0630E-06    -46.2317E-06     95.2351E-06     1.90864E-06     6.36733E-06     3.62658E-06     954.156E-03     949.393E-03     949.393E-03     5.12965E-03    -14.1151E-03     963.508E-03    -313.469E-03     953.344E-03    -10.1194E-03     2.12999E-03     948.397E-03     6.38341E-03     21.2954E-03     12.1290E-03
             290              0.              0.              0.              0.     271.025E-06    -65.8641E-06    -65.8641E-06     254.516E-06     98.2167E-06     98.2167E-06    -46.9459E-06    -50.3183E-06    -48.4948E-06    -48.4948E-06     97.9422E-06     2.52953E-06     7.09126E-06     7.09126E-06     98.2167E-06     98.2167E-06    -46.9459E-06    -50.3183E-06    -48.4948E-06    -48.4948E-06     97.9422E-06     2.52953E-06     7.09126E-06     7.09126E-06     982.576E-03     972.365E-03     972.365E-03     1.37749E-03    -21.1800E-03     993.545E-03    -317.521E-03     981.646E-03    -8.98303E-03    -8.98303E-03     970.529E-03     8.45996E-03     23.7166E-03     23.7166E-03
             291              0.              0.              0.              0.     262.471E-06    -67.8810E-06    -39.0773E-06     250.512E-06     103.684E-06     103.684E-06    -48.8538E-06    -53.8469E-06    -49.1637E-06    -53.2377E-06     103.385E-06     1.57521E-06     8.71885E-06     5.27796E-06     103.684E-06     103.684E-06    -48.8538E-06    -53.8469E-06    -49.1637E-06    -53.2377E-06     103.385E-06     1.57521E-06     8.71885E-06     5.27796E-06         1.03763         1.01929         1.01929    -1.03219E-03    -34.4308E-03         1.05372    -327.943E-03         1.03581    -3.10494E-03    -30.3564E-03         1.01729     5.26826E-03     29.1600E-03     17.6521E-03
             292              0.              0.              0.              0.     262.471E-06    -67.8810E-06     39.0773E-06     250.512E-06     103.684E-06     103.684E-06    -48.8538E-06    -53.8469E-06    -49.1637E-06    -53.2377E-06     103.385E-06    -1.57521E-06     8.71885E-06    -5.27796E-06     103.684E-06     103.684E-06    -48.8538E-06    -53.8469E-06    -49.1637E-06    -53.2377E-06     103.385E-06    -1.57521E-06     8.71885E-06    -5.27796E-06         1.03763         1.01929         1.01929    -1.03219E-03    -34.4308E-03         1.05372    -327.943E-03         1.03581    -3.10494E-03    -30.3564E-03         1.01729    -5.26826E-03     29.1600E-03    -17.6521E-03
             293              0.              0.              0.              0.     271.025E-06    -65.8641E-06     65.8641E-06     254.516E-06     98.2167E-06     98.2167E-06    -46.9459E-06    -50.3183E-06    -48.4948E-06    -48.4948E-06     97.9422E-06    -2.52953E-06     7.09126E-06    -7.09126E-06     98.2167E-06     98.2167E-06    -46.9459E-06    -50.3183E-06    -48.4948E-06    -48.4948E-06     97.9422E-06    -2.52953E-06     7.09126E-06    -7.09126E-06     982.576E-03     972.365E-03     972.365E-03     1.37749E-03    -21.1800E-03     993.545E-03    -317.521E-03     981.646E-03    -8.98303E-03    -8.98303E-03     970.529E-03    -8.45996E-03     23.7166E-03    -23.7166E-03
             294              0.              0.              0.              0.     299.032E-06    -66.0076E-06     137.724E-06     257.090E-06     95.3840E-06     95.3840E-06    -45.7833E-06    -48.6604E-06    -48.0630E-06    -46.2317E-06     95.2351E-06    -1.90864E-06     6.36733E-06    -3.62658E-06     95.3840E-06     95.3840E-06    -45.7833E-06    -48.6604E-06    -48.0630E-06    -46.2317E-06     95.2351E-06    -1.90864E-06     6.36733E-06    -3.62658E-06     954.156E-03     949.393E-03     949.393E-03     5.12965E-03    -14.1151E-03     963.508E-03    -313.469E-03     953.344E-03    -10.1194E-03     2.12999E-03     948.397E-03    -6.38341E-03     21.2954E-03    -12.1290E-03
             295              0.              0.              0.              0.     221.841E-06    -91.5519E-06    -107.738E-06     170.951E-06     94.3526E-06     94.3526E-06    -43.9678E-06    -49.5387E-06    -47.4620E-06    -45.5528E-06     93.8610E-06     4.78328E-06     3.97856E-06     8.78728E-06     94.3526E-06     94.3526E-06    -43.9678E-06    -49.5387E-06    -47.4620E-06    -45.5528E-06     93.8610E-06     4.78328E-06     3.97856E-06     8.78728E-06     944.480E-03     911.297E-03     911.297E-03    -13.9231E-03    -51.1869E-03     962.484E-03    -282.062E-03     942.593E-03    -37.2958E-03    -24.5256E-03     908.008E-03     15.9976E-03     13.3062E-03     29.3889E-03
             296              0.              0.              0.              0.     211.881E-06    -91.9660E-06    -91.9660E-06     167.267E-06     98.9604E-06     98.9604E-06    -45.8540E-06    -52.1555E-06    -48.7039E-06    -48.7039E-06     98.3588E-06     5.62378E-06     4.89324E-06     4.89324E-06     98.9604E-06     98.9604E-06    -45.8540E-06    -52.1555E-06    -48.7039E-06    -48.7039E-06     98.3588E-06     5.62378E-06     4.89324E-06     4.89324E-06     990.465E-03     976.797E-03     976.797E-03     8.13909E-03    -34.0113E-03         1.01081    -316.975E-03     988.266E-03    -10.9240E-03    -10.9240E-03     972.773E-03     18.8086E-03     16.3654E-03     16.3654E-03
             297              0.              0.              0.              0.     177.034E-06    -98.4262E-06    -18.1593E-06     146.026E-06     101.929E-06     101.929E-06    -45.4721E-06    -55.3711E-06    -50.5530E-06    -49.7560E-06     101.395E-06     3.23214E-06     6.58349E-06     499.603E-09     101.929E-06     101.929E-06    -45.4721E-06    -55.3711E-06    -50.5530E-06    -49.7560E-06     101.395E-06     3.23214E-06     6.58349E-06     499.603E-09         1.02116         1.04135         1.04135     55.3870E-03    -10.8274E-03         1.05218    -361.969E-03         1.01483     21.4010E-03     26.7320E-03         1.03777     10.8098E-03     22.0184E-03     1.67091E-03
             298              0.              0.              0.              0.     177.034E-06    -98.4262E-06     18.1593E-06     146.026E-06     101.929E-06     101.929E-06    -45.4721E-06    -55.3711E-06    -50.5530E-06    -49.7560E-06     101.395E-06    -3.23214E-06     6.58349E-06    -499.603E-09     101.929E-06     101.929E-06    -45.4721E-06    -55.3711E-06    -50.5530E-06    -49.7560E-06     101.395E-06    -3.23214E-06     6.58349E-06    -499.603E-09         1.02116         1.04135         1.04135     55.3870E-03    -10.8274E-03         1.05218    -361.969E-03         1.01483     21.4010E-03     26.7320E-03         1.03777    -10.8098E-03     22.0184E-03    -1.67091E-03
             299              0.              0.              0.              0.     211.881E-06    -91.9660E-06     91.9660E-06     167.267E-06     98.9604E-06     98.9604E-06    -45.8540E-06    -52.1555E-06    -48.7039E-06    -48.7039E-06     98.3588E-06    -5.62378E-06     4.89324E-06    -4.89324E-06     98.9604E-06     98.9604E-06    -45.8540E-06    -52.1555E-06    -48.7039E-06    -48.7039E-06     98.3588E-06    -5.62378E-06     4.89324E-06    -4.89324E-06     990.465E-03     976.797E-03     976.797E-03     8.13909E-03    -34.0113E-03         1.01081    -316.975E-03     988.266E-03    -10.9240E-03    -10.9240E-03     972.773E-03    -18.8086E-03     16.3654E-03    -16.3654E-03
             300              0.              0.              0.              0.     221.841E-06    -91.5519E-06     107.738E-06     170.951E-06     94.3526E-06     94.3526E-06    -43.9678E-06    -49.5387E-06    -47.4620E-06    -45.5528E-06     93.8610E-06    -4.78328E-06     3.97856E-06    -8.78728E-06     94.3526E-06     94.3526E-06    -43.9678E-06    -49.5387E-06    -47.4620E-06    -45.5528E-06     93.8610E-06    -4.78328E-06     3.97856E-06    -8.78728E-06     944.480E-03     911.297E-03     911.297E-03    -13.9231E-03    -51.1869E-03     962.484E-03    -282.062E-03     942.593E-03    -37.2958E-03    -24.5256E-03     908.008E-03    -15.9976E-03     13.3062E-03    -29.3889E-03
             301              0.              0.              0.              0.     159.032E-06    -47.8164E-06    -129.166E-06     79.5041E-06     89.7622E-06     89.7622E-06    -37.1677E-06    -51.3127E-06    -37.5361E-06    -43.5387E-06     82.3565E-06     4.96199E-06    -24.4754E-06    -24.2334E-06     89.7622E-06     89.7622E-06    -37.1677E-06    -51.3127E-06    -37.5361E-06    -43.5387E-06     82.3565E-06     4.96199E-06    -24.4754E-06    -24.2334E-06     903.652E-03         1.02482         1.02482     175.795E-03     81.1799E-03     943.645E-03    -427.267E-03     880.333E-03     173.331E-03     133.180E-03     975.288E-03     16.5953E-03    -81.8574E-03    -81.0481E-03
             302              0.              0.              0.              0.     72.6426E-06    -47.2983E-06    -47.2983E-06     28.3318E-06     86.2679E-06     86.2679E-06    -35.3657E-06    -49.4667E-06    -38.8601E-06    -38.8601E-06     79.1558E-06     5.48151E-06    -25.0763E-06    -25.0763E-06     86.2679E-06     86.2679E-06    -35.3657E-06    -49.4667E-06    -38.8601E-06    -38.8601E-06     79.1558E-06     5.48151E-06    -25.0763E-06    -25.0763E-06     868.122E-03         1.05236         1.05236     238.753E-03     144.433E-03     907.924E-03    -478.514E-03     844.671E-03     215.379E-03     215.379E-03         1.00478     18.3328E-03    -83.8672E-03    -83.8672E-03
             303              0.              0.              0.              0.     67.0737E-06    -55.0860E-06    -17.1167E-06     34.2262E-06     78.9183E-06     78.9183E-06    -30.6571E-06    -46.6855E-06    -40.6714E-06    -30.9660E-06     73.2132E-06     3.00052E-06    -26.3690E-06    -12.9596E-06     78.9183E-06     78.9183E-06    -30.6571E-06    -46.6855E-06    -40.6714E-06    -30.9660E-06     73.2132E-06     3.00052E-06    -26.3690E-06    -12.9596E-06     794.854E-03         1.04964         1.04964     316.691E-03     209.478E-03     840.159E-03    -525.269E-03     768.577E-03     249.706E-03     314.625E-03         1.01148     10.0352E-03    -88.1907E-03    -43.3431E-03
             304              0.              0.              0.              0.     67.0737E-06    -55.0860E-06     17.1167E-06     34.2262E-06     78.9183E-06     78.9183E-06    -30.6571E-06    -46.6855E-06    -40.6714E-06    -30.9660E-06     73.2132E-06    -3.00052E-06    -26.3690E-06     12.9596E-06     78.9183E-06     78.9183E-06    -30.6571E-06    -46.6855E-06    -40.6714E-06    -30.9660E-06     73.2132E-06    -3.00052E-06    -26.3690E-06     12.9596E-06     794.854E-03         1.04964         1.04964     316.691E-03     209.478E-03     840.159E-03    -525.269E-03     768.577E-03     249.706E-03     314.625E-03         1.01148    -10.0352E-03    -88.1907E-03     43.3431E-03
             305              0.              0.              0.              0.     72.6426E-06    -47.2983E-06     47.2983E-06     28.3318E-06     86.2679E-06     86.2679E-06    -35.3657E-06    -49.4667E-06    -38.8601E-06    -38.8601E-06     79.1558E-06    -5.48151E-06    -25.0763E-06     25.0763E-06     86.2679E-06     86.2679E-06    -35.3657E-06    -49.4667E-06    -38.8601E-06    -38.8601E-06     79.1558E-06    -5.48151E-06    -25.0763E-06     25.0763E-06     868.122E-03         1.05236         1.05236     238.753E-03     144.433E-03     907.924E-03    -478.514E-03     844.671E-03     215.379E-03     215.379E-03         1.00478    -18.3328E-03    -83.8672E-03     83.8672E-03
             306              0.              0.              0.              0.     159.032E-06    -47.8164E-06     129.166E-06     79.5041E-06     89.7622E-06     89.7622E-06    -37.1677E-06    -51.3127E-06    -37.5361E-06    -43.5387E-06     82.3565E-06    -4.96199E-06    -24.4754E-06     24.2334E-06     89.7622E-06     89.7622E-06    -37.1677E-06    -51.3127E-06    -37.5361E-06    -43.5387E-06     82.3565E-06    -4.96199E-06    -24.4754E-06     24.2334E-06     903.652E-03         1.02482         1.02482     175.795E-03     81.1799E-03     943.645E-03    -427.267E-03     880.333E-03     173.331E-03     133.180E-03     975.288E-03    -16.5953E-03    -81.8574E-03     81.0481E-03
             307     687.399E-03     134.134E-03     275.366E-03    -615.385E-03              0.    -134.134E-39    -275.366E-39     615.385E-39     82.1461E-06     82.1461E-06    -29.2797E-06    -51.0416E-06    -26.6346E-06    -39.6326E-06     68.0921E-06     3.52335E-06    -48.6208E-06    -63.5138E-06     82.1461E-06     82.1461E-06    -29.2797E-06    -51.0416E-06    -26.6346E-06    -39.6326E-06     68.0921E-06     3.52335E-06    -48.6208E-06    -63.5138E-06     831.991E-03         1.15367         1.15367     408.351E-03     262.786E-03     890.888E-03    -608.270E-03     787.590E-03     426.044E-03     339.100E-03         1.05967     11.7838E-03    -162.612E-03    -212.421E-03
             308         1.00167     275.661E-03     275.661E-03    -922.695E-03              0.    -275.661E-39    -275.661E-39     922.695E-39     70.5220E-06     70.5220E-06    -23.8572E-06    -44.7620E-06    -27.5605E-06    -27.5605E-06     57.0239E-06     3.82447E-06    -50.3787E-06    -50.3787E-06     70.5220E-06     70.5220E-06    -23.8572E-06    -44.7620E-06    -27.5605E-06    -27.5605E-06     57.0239E-06     3.82447E-06    -50.3787E-06    -50.3787E-06     715.047E-03         1.10175         1.10175     470.455E-03     330.623E-03     771.131E-03    -634.277E-03     670.802E-03     445.683E-03     445.683E-03         1.01147     12.7909E-03    -168.491E-03    -168.491E-03
             309     910.686E-03     291.926E-03     50.2461E-03    -861.164E-03              0.    -291.926E-39    -50.2461E-39     861.164E-39     58.5110E-06     58.5110E-06    -18.4162E-06    -38.1270E-06    -28.7235E-06    -16.9432E-06     47.6344E-06     2.06279E-06    -53.7546E-06    -18.6218E-06     58.5110E-06     58.5110E-06    -18.4162E-06    -38.1270E-06    -28.7235E-06    -16.9432E-06     47.6344E-06     2.06279E-06    -53.7546E-06    -18.6218E-06     593.990E-03         1.04291         1.04291     528.344E-03     396.499E-03     646.408E-03    -655.917E-03     550.816E-03     459.399E-03     538.197E-03     970.154E-03     6.89896E-03    -179.781E-03    -62.2803E-03
             310     910.686E-03     291.926E-03    -50.2461E-03    -861.164E-03              0.    -291.926E-39     50.2461E-39     861.164E-39     58.5110E-06     58.5110E-06    -18.4162E-06    -38.1270E-06    -28.7235E-06    -16.9432E-06     47.6344E-06    -2.06279E-06    -53.7546E-06     18.6218E-06     58.5110E-06     58.5110E-06    -18.4162E-06    -38.1270E-06    -28.7235E-06    -16.9432E-06     47.6344E-06    -2.06279E-06    -53.7546E-06     18.6218E-06     593.990E-03         1.04291         1.04291     528.344E-03     396.499E-03     646.408E-03    -655.917E-03     550.816E-03     459.399E-03     538.197E-03     970.154E-03    -6.89896E-03    -179.781E-03     62.2803E-03
             311         1.00167     275.661E-03    -275.661E-03    -922.695E-03              0.    -275.661E-39     275.661E-39     922.695E-39     70.5220E-06     70.5220E-06    -23.8572E-06    -44.7620E-06    -27.5605E-06    -27.5605E-06     57.0239E-06    -3.82447E-06    -50.3787E-06     50.3787E-06     70.5220E-06     70.5220E-06    -23.8572E-06    -44.7620E-06    -27.5605E-06    -27.5605E-06     57.0239E-06    -3.82447E-06    -50.3787E-06     50.3787E-06     715.047E-03         1.10175         1.10175     470.455E-03     330.623E-03     771.131E-03    -634.277E-03     670.802E-03     445.683E-03     445.683E-03         1.01147    -12.7909E-03    -168.491E-03     168.491E-03
             312     687.399E-03     134.134E-03    -275.366E-03    -615.385E-03              0.    -134.134E-39     275.366E-39     615.385E-39     82.1461E-06     82.1461E-06    -29.2797E-06    -51.0416E-06    -26.6346E-06    -39.6326E-06     68.0921E-06    -3.52335E-06    -48.6208E-06     63.5138E-06     82.1461E-06     82.1461E-06    -29.2797E-06    -51.0416E-06    -26.6346E-06    -39.6326E-06     68.0921E-06    -3.52335E-06    -48.6208E-06     63.5138E-06     831.991E-03         1.15367         1.15367     408.351E-03     262.786E-03     890.888E-03    -608.270E-03     787.590E-03     426.044E-03     339.100E-03         1.05967    -11.7838E-03    -162.612E-03     212.421E-03
             313              0.              0.              0.              0.     2.45823E-03    -28.1020E-06    -126.836E-06     2.45480E-03     99.9862E-06     99.9862E-06    -49.4853E-06    -49.5006E-06    -49.5004E-06    -49.4854E-06     99.9862E-06     272.960E-12     1.17538E-09     442.653E-12     99.9862E-06     99.9862E-06    -49.4853E-06    -49.5006E-06    -49.5004E-06    -49.4854E-06     99.9862E-06     272.960E-12     1.17538E-09     442.653E-12     999.860E-03         1.00000         1.00000     193.964E-06     91.1940E-06     999.912E-03    -333.429E-03     999.860E-03     92.3344E-06     192.825E-06         1.00000     912.910E-09     3.93105E-06     1.48045E-06
             314              0.              0.              0.              0.     2.45594E-03    -27.7713E-06    -71.2433E-06     2.45475E-03     100.000E-06     100.000E-06    -49.4925E-06    -49.5076E-06    -49.5003E-06    -49.4998E-06     100.000E-06    -295.394E-12    -279.548E-12    -88.2628E-12     100.000E-06     100.000E-06    -49.4925E-06    -49.5076E-06    -49.5003E-06    -49.4998E-06     100.000E-06    -295.394E-12    -279.548E-12    -88.2628E-12         1.00000         1.00000         1.00000     50.2445E-06    -50.6082E-06         1.00005    -333.334E-03         1.00000    -2.01477E-06     1.65165E-06         1.00000    -987.940E-09    -934.944E-09    -295.193E-09
             315              0.              0.              0.              0.     2.45509E-03    -27.7194E-06    -27.7194E-06     2.45477E-03     100.000E-06     100.000E-06    -49.4928E-06    -49.5072E-06    -49.5000E-06    -49.5000E-06     100.000E-06    -431.874E-12    -309.589E-12    -309.589E-12     100.000E-06     100.000E-06    -49.4928E-06    -49.5072E-06    -49.5000E-06    -49.5000E-06     100.000E-06    -431.874E-12    -309.589E-12    -309.589E-12         1.00000     999.998E-03     999.998E-03     46.2176E-06    -49.8287E-06         1.00005    -333.332E-03         1.00000    -1.80549E-06    -1.80549E-06     999.998E-03    -1.44440E-06    -1.03542E-06    -1.03542E-06
             316              0.              0.              0.              0.     2.45509E-03    -27.7194E-06     27.7194E-06     2.45477E-03     100.000E-06     100.000E-06    -49.4928E-06    -49.5072E-06    -49.5000E-06    -49.5000E-06     100.000E-06     431.874E-12    -309.589E-12     309.589E-12     100.000E-06     100.000E-06    -49.4928E-06    -49.5072E-06    -49.5000E-06    -49.5000E-06     100.000E-06     431.874E-12    -309.589E-12     309.589E-12         1.00000     999.998E-03     999.998E-03     46.2176E-06    -49.8287E-06         1.00005    -333.332E-03         1.00000    -1.80549E-06    -1.80549E-06     999.998E-03     1.44440E-06    -1.03542E-06     1.03542E-06
             317              0.              0.              0.              0.     2.45594E-03    -27.7713E-06     71.2433E-06     2.45475E-03     100.000E-06     100.000E-06    -49.4925E-06    -49.5076E-06    -49.5003E-06    -49.4998E-06     100.000E-06     295.394E-12    -279.548E-12     88.2628E-12     100.000E-06     100.000E-06    -49.4925E-06    -49.5076E-06    -49.5003E-06    -49.4998E-06     100.000E-06     295.394E-12    -279.548E-12     88.2628E-12         1.00000         1.00000         1.00000     50.2445E-06    -50.6082E-06         1.00005    -333.334E-03         1.00000    -2.01477E-06     1.65165E-06         1.00000     987.940E-09    -934.944E-09     295.193E-09
             318              0.              0.              0.              0.     2.45823E-03    -28.1020E-06     126.836E-06     2.45480E-03     99.9862E-06     99.9862E-06    -49.4853E-06    -49.5006E-06    -49.5004E-06    -49.4854E-06     99.9862E-06    -272.960E-12     1.17538E-09    -442.653E-12     99.9862E-06     99.9862E-06    -49.4853E-06    -49.5006E-06    -49.5004E-06    -49.4854E-06     99.9862E-06    -272.960E-12     1.17538E-09    -442.653E-12     999.860E-03         1.00000         1.00000     193.964E-06     91.1940E-06     999.912E-03    -333.429E-03     999.860E-03     92.3344E-06     192.825E-06         1.00000    -912.910E-09     3.93105E-06    -1.48045E-06
             319              0.              0.              0.              0.     2.35803E-03    -21.4032E-06    -120.654E-06     2.35484E-03     100.014E-06     100.014E-06    -49.4918E-06    -49.5224E-06    -49.5001E-06    -49.5141E-06     100.014E-06    -218.558E-12    -1.62632E-09    -464.615E-12     100.014E-06     100.014E-06    -49.4918E-06    -49.5224E-06    -49.5001E-06    -49.5141E-06     100.014E-06    -218.558E-12    -1.62632E-09    -464.615E-12         1.00014     999.995E-03     999.995E-03    -42.5241E-06    -247.237E-06         1.00024    -333.235E-03         1.00014    -98.0719E-06    -191.687E-06     999.995E-03    -730.965E-09    -5.43918E-06    -1.55390E-06
             320              0.              0.              0.              0.     2.35611E-03    -21.7031E-06    -77.2662E-06     2.35475E-03     100.000E-06     100.000E-06    -49.4853E-06    -49.5148E-06    -49.5000E-06    -49.5001E-06     100.000E-06    -151.673E-12    -262.800E-12    -97.7209E-12     100.000E-06     100.000E-06    -49.4853E-06    -49.5148E-06    -49.5000E-06    -49.5001E-06     100.000E-06    -151.673E-12    -262.800E-12    -97.7209E-12         1.00000         1.00000         1.00000     98.0977E-06    -99.6729E-06         1.00010    -333.333E-03         1.00000    -498.291E-09    -1.07544E-06         1.00000    -507.268E-09    -878.928E-09    -326.825E-09
             321              0.              0.              0.              0.     2.35499E-03    -21.7702E-06    -21.7702E-06     2.35479E-03     99.9999E-06     99.9999E-06    -49.4859E-06    -49.5140E-06    -49.4999E-06    -49.4999E-06     99.9999E-06    -42.3940E-12     134.587E-12     134.587E-12     99.9999E-06     99.9999E-06    -49.4859E-06    -49.5140E-06    -49.4999E-06    -49.4999E-06     99.9999E-06    -42.3940E-12     134.587E-12     134.587E-12     999.999E-03     999.998E-03     999.998E-03     93.2625E-06    -94.9606E-06         1.00009    -333.332E-03     999.999E-03    -848.937E-09    -848.937E-09     999.998E-03    -141.786E-09     450.123E-09     450.123E-09
             322              0.              0.              0.              0.     2.35499E-03    -21.7702E-06     21.7702E-06     2.35479E-03     99.9999E-06     99.9999E-06    -49.4859E-06    -49.5140E-06    -49.4999E-06    -49.4999E-06     99.9999E-06     42.3939E-12     134.587E-12    -134.587E-12     99.9999E-06     99.9999E-06    -49.4859E-06    -49.5140E-06    -49.4999E-06    -49.4999E-06     99.9999E-06     42.3939E-12     134.587E-12    -134.587E-12     999.999E-03     999.998E-03     999.998E-03     93.2625E-06    -94.9606E-06         1.00009    -333.332E-03     999.999E-03    -848.937E-09    -848.937E-09     999.998E-03     141.786E-09     450.123E-09    -450.123E-09
             323              0.              0.              0.              0.     2.35611E-03    -21.7031E-06     77.2662E-06     2.35475E-03     100.000E-06     100.000E-06    -49.4853E-06    -49.5148E-06    -49.5000E-06    -49.5001E-06     100.000E-06     151.673E-12    -262.800E-12     97.7209E-12     100.000E-06     100.000E-06    -49.4853E-06    -49.5148E-06    -49.5000E-06    -49.5001E-06     100.000E-06     151.673E-12    -262.800E-12     97.7209E-12         1.00000         1.00000         1.00000     98.0977E-06    -99.6729E-06         1.00010    -333.333E-03         1.00000    -498.291E-09    -1.07544E-06         1.00000     507.268E-09    -878.928E-09     326.825E-09
             324              0.              0.              0.              0.     2.35803E-03    -21.4032E-06     120.654E-06     2.35484E-03     100.014E-06     100.014E-06    -49.4918E-06    -49.5224E-06    -49.5001E-06    -49.5141E-06     100.014E-06     218.558E-12    -1.62632E-09     464.615E-12     100.014E-06     100.014E-06    -49.4918E-06    -49.5224E-06    -49.5001E-06    -49.5141E-06     100.014E-06     218.558E-12    -1.62632E-09     464.615E-12         1.00014     999.995E-03     999.995E-03    -42.5241E-06    -247.237E-06         1.00024    -333.235E-03         1.00014    -98.0719E-06    -191.687E-06     999.995E-03     730.964E-09    -5.43918E-06     1.55390E-06
             325              0.              0.              0.              0.     2.25834E-03    -28.1391E-06    -126.887E-06     2.25460E-03     99.9856E-06     99.9856E-06    -49.4626E-06    -49.5227E-06    -49.4997E-06    -49.4856E-06     99.9856E-06     73.8715E-12     854.151E-12    -111.290E-12     99.9856E-06     99.9856E-06    -49.4626E-06    -49.5227E-06    -49.4997E-06    -49.4856E-06     99.9856E-06     73.8715E-12     854.151E-12    -111.290E-12     999.854E-03    1000.000E-03    1000.000E-03     346.109E-06    -55.4895E-06         1.00006    -333.430E-03     999.854E-03     98.0449E-06     192.580E-06    1000.000E-03     247.062E-09     2.85669E-06    -372.205E-09
             326              0.              0.              0.              0.     2.25612E-03    -27.8415E-06    -71.1933E-06     2.25482E-03     99.9997E-06     99.9997E-06    -49.4708E-06    -49.5289E-06    -49.4998E-06    -49.4999E-06     99.9997E-06     206.378E-12     230.858E-12    -102.868E-12     99.9997E-06     99.9997E-06    -49.4708E-06    -49.5289E-06    -49.4998E-06    -49.4999E-06     99.9997E-06     206.378E-12     230.858E-12    -102.868E-12     999.997E-03     999.997E-03     999.997E-03     194.454E-06    -194.553E-06         1.00019    -333.332E-03     999.997E-03     308.064E-09    -403.776E-09     999.997E-03     690.228E-09     772.100E-09    -344.039E-09
             327              0.              0.              0.              0.     2.25505E-03    -27.7703E-06    -27.7703E-06     2.25471E-03    100.0000E-06    100.0000E-06    -49.4719E-06    -49.5280E-06    -49.5000E-06    -49.5000E-06    100.0000E-06     169.442E-12    -47.2229E-12    -47.2228E-12    100.0000E-06    100.0000E-06    -49.4719E-06    -49.5280E-06    -49.5000E-06    -49.5000E-06    100.0000E-06     169.442E-12    -47.2229E-12    -47.2228E-12    1000.000E-03         1.00000         1.00000     188.224E-06    -187.002E-06         1.00019    -333.334E-03     999.999E-03     611.330E-09     611.330E-09         1.00000     566.697E-09    -157.936E-09    -157.936E-09
             328              0.              0.              0.              0.     2.25505E-03    -27.7703E-06     27.7703E-06     2.25471E-03    100.0000E-06    100.0000E-06    -49.4719E-06    -49.5280E-06    -49.5000E-06    -49.5000E-06    100.0000E-06    -169.442E-12    -47.2228E-12     47.2229E-12    100.0000E-06    100.0000E-06    -49.4719E-06    -49.5280E-06    -49.5000E-06    -49.5000E-06    100.0000E-06    -169.442E-12    -47.2228E-12     47.2229E-12    1000.000E-03         1.00000         1.00000     188.224E-06    -187.002E-06         1.00019    -333.334E-03     999.999E-03     611.330E-09     611.330E-09         1.00000    -566.697E-09    -157.936E-09     157.936E-09
             329              0.              0.              0.              0.     2.25612E-03    -27.8415E-06     71.1933E-06     2.25482E-03     99.9997E-06     99.9997E-06    -49.4708E-06    -49.5289E-06    -49.4998E-06    -49.4999E-06     99.9997E-06    -206.378E-12     230.858E-12     102.868E-12     99.9997E-06     99.9997E-06    -49.4708E-06    -49.5289E-06    -49.4998E-06    -49.4999E-06     99.9997E-06    -206.378E-12     230.858E-12     102.868E-12     999.997E-03     999.997E-03     999.997E-03     194.454E-06    -194.553E-06         1.00019    -333.332E-03     999.997E-03     308.064E-09    -403.776E-09     999.997E-03    -690.228E-09     772.100E-09     344.039E-09
             330              0.              0.              0.              0.     2.25834E-03    -28.1391E-06     126.887E-06     2.25460E-03     99.9856E-06     99.9856E-06    -49.4626E-06    -49.5227E-06    -49.4997E-06    -49.4856E-06     99.9856E-06    -73.8715E-12     854.151E-12     111.290E-12     99.9856E-06     99.9856E-06    -49.4626E-06    -49.5227E-06    -49.4997E-06    -49.4856E-06     99.9856E-06    -73.8715E-12     854.151E-12     111.290E-12     999.854E-03    1000.000E-03    1000.000E-03     346.109E-06    -55.4895E-06         1.00006    -333.430E-03     999.854E-03     98.0449E-06     192.580E-06    1000.000E-03    -247.062E-09     2.85669E-06     372.205E-09
             331              0.              0.              0.              0.     2.15850E-03    -21.2825E-06    -120.541E-06     2.15502E-03     100.014E-06     100.014E-06    -49.4631E-06    -49.5515E-06    -49.4998E-06    -49.5148E-06     100.014E-06     220.567E-12     175.465E-12     181.803E-12     100.014E-06     100.014E-06    -49.4631E-06    -49.5515E-06    -49.4998E-06    -49.5148E-06     100.014E-06     220.567E-12     175.465E-12     181.803E-12         1.00015     999.998E-03     999.998E-03     149.014E-06    -442.705E-06         1.00044    -333.235E-03         1.00014    -96.6289E-06    -197.056E-06     999.998E-03     737.681E-09     586.839E-09     608.035E-09
             332              0.              0.              0.              0.     2.15618E-03    -21.5885E-06    -77.3773E-06     2.15468E-03     99.9999E-06     99.9999E-06    -49.4566E-06    -49.5433E-06    -49.4999E-06    -49.5001E-06     99.9999E-06     96.0853E-12     228.373E-12     125.113E-12     99.9999E-06     99.9999E-06    -49.4566E-06    -49.5433E-06    -49.4999E-06    -49.5001E-06     99.9999E-06     96.0853E-12     228.373E-12     125.113E-12    1000.000E-03         1.00000         1.00000     291.247E-06    -288.568E-06         1.00029    -333.334E-03     999.999E-03     2.01768E-06     665.787E-09         1.00000     321.355E-09     763.790E-09     418.437E-09
             333              0.              0.              0.              0.     2.15507E-03    -21.6594E-06    -21.6594E-06     2.15485E-03     99.9998E-06     99.9998E-06    -49.4575E-06    -49.5423E-06    -49.4999E-06    -49.4999E-06     99.9998E-06    -14.1981E-12     34.2114E-12     34.2115E-12     99.9998E-06     99.9998E-06    -49.4575E-06    -49.5423E-06    -49.4999E-06    -49.4999E-06     99.9998E-06    -14.1981E-12     34.2114E-12     34.2115E-12     999.998E-03     999.998E-03     999.998E-03     284.093E-06    -283.722E-06         1.00028    -333.333E-03     999.998E-03     185.551E-09     185.551E-09     999.998E-03    -47.4852E-09     114.419E-09     114.419E-09
             334              0.              0.              0.              0.     2.15507E-03    -21.6594E-06     21.6594E-06     2.15485E-03     99.9998E-06     99.9998E-06    -49.4575E-06    -49.5423E-06    -49.4999E-06    -49.4999E-06     99.9998E-06     14.1981E-12     34.2115E-12    -34.2113E-12     99.9998E-06     99.9998E-06    -49.4575E-06    -49.5423E-06    -49.4999E-06    -49.4999E-06     99.9998E-06     14.1981E-12     34.2115E-12    -34.2113E-12     999.998E-03     999.998E-03     999.998E-03     284.093E-06    -283.722E-06         1.00028    -333.333E-03     999.998E-03     185.551E-09     185.551E-09     999.998E-03     47.4852E-09     114.419E-09    -114.419E-09
             335              0.              0.              0.              0.     2.15618E-03    -21.5885E-06     77.3773E-06     2.15468E-03     99.9999E-06     99.9999E-06    -49.4566E-06    -49.5433E-06    -49.4999E-06    -49.5001E-06     99.9999E-06    -96.0853E-12     228.374E-12    -125.113E-12     99.9999E-06     99.9999E-06    -49.4566E-06    -49.5433E-06    -49.4999E-06    -49.5001E-06     99.9999E-06    -96.0853E-12     228.374E-12    -125.113E-12    1000.000E-03         1.00000         1.00000     291.247E-06    -288.568E-06         1.00029    -333.334E-03     999.999E-03     2.01768E-06     665.787E-09         1.00000    -321.355E-09     763.791E-09    -418.437E-09
             336              0.              0.              0.              0.     2.15850E-03    -21.2825E-06     120.541E-06     2.15502E-03     100.014E-06     100.014E-06    -49.4631E-06    -49.5515E-06    -49.4998E-06    -49.5148E-06     100.014E-06    -220.567E-12     175.465E-12    -181.803E-12     100.014E-06     100.014E-06    -49.4631E-06    -49.5515E-06    -49.4998E-06    -49.5148E-06     100.014E-06    -220.567E-12     175.465E-12    -181.803E-12         1.00015     999.998E-03     999.998E-03     149.014E-06    -442.705E-06         1.00044    -333.235E-03         1.00014    -96.6289E-06    -197.056E-06     999.998E-03    -737.681E-09     586.839E-09    -608.035E-09
             337              0.              0.              0.              0.     2.05854E-03    -28.3264E-06    -127.061E-06     2.05442E-03     99.9851E-06     99.9851E-06    -49.4336E-06    -49.5512E-06    -49.5001E-06    -49.4847E-06     99.9851E-06    -235.074E-12    -81.8339E-12    -857.980E-15     99.9851E-06     99.9851E-06    -49.4336E-06    -49.5512E-06    -49.5001E-06    -49.4847E-06     99.9851E-06    -235.074E-12    -81.8339E-12    -857.980E-15     999.850E-03         1.00000         1.00000     545.805E-06    -240.379E-06         1.00024    -333.436E-03     999.849E-03     101.402E-06     204.031E-06         1.00000    -786.200E-09    -273.692E-09    -2.87037E-09
             338              0.              0.              0.              0.     2.05630E-03    -28.0087E-06    -71.0216E-06     2.05488E-03     99.9999E-06     99.9999E-06    -49.4419E-06    -49.5580E-06    -49.5000E-06    -49.4999E-06     99.9999E-06    -98.0356E-12    -73.4596E-12     57.8021E-12     99.9999E-06     99.9999E-06    -49.4419E-06    -49.5580E-06    -49.5000E-06    -49.4999E-06     99.9999E-06    -98.0356E-12    -73.4596E-12     57.8021E-12    1000.000E-03     999.999E-03     999.999E-03     388.020E-06    -388.565E-06         1.00039    -333.333E-03     999.999E-03    -674.976E-09     133.950E-09     999.999E-03    -327.878E-09    -245.685E-09     193.317E-09
             339              0.              0.              0.              0.     2.05503E-03    -27.9404E-06    -27.9404E-06     2.05465E-03    100.0000E-06    100.0000E-06    -49.4427E-06    -49.5573E-06    -49.5000E-06    -49.5000E-06    100.0000E-06     19.5012E-12     58.2311E-12     58.2311E-12    100.0000E-06    100.0000E-06    -49.4427E-06    -49.5573E-06    -49.5000E-06    -49.5000E-06    100.0000E-06     19.5012E-12     58.2311E-12     58.2311E-12         1.00000         1.00000         1.00000     384.064E-06    -382.655E-06         1.00038    -333.334E-03     999.999E-03     705.317E-09     705.317E-09         1.00000     65.2215E-09     194.752E-09     194.753E-09
             340              0.              0.              0.              0.     2.05503E-03    -27.9404E-06     27.9404E-06     2.05465E-03    100.0000E-06    100.0000E-06    -49.4427E-06    -49.5573E-06    -49.5000E-06    -49.5000E-06    100.0000E-06    -19.5013E-12     58.2311E-12    -58.2310E-12    100.0000E-06    100.0000E-06    -49.4427E-06    -49.5573E-06    -49.5000E-06    -49.5000E-06    100.0000E-06    -19.5013E-12     58.2311E-12    -58.2310E-12         1.00000         1.00000         1.00000     384.064E-06    -382.655E-06         1.00038    -333.334E-03     999.999E-03     705.317E-09     705.317E-09         1.00000    -65.2216E-09     194.752E-09    -194.752E-09
             341              0.              0.              0.              0.     2.05630E-03    -28.0087E-06     71.0216E-06     2.05488E-03     99.9999E-06     99.9999E-06    -49.4419E-06    -49.5580E-06    -49.5000E-06    -49.4999E-06     99.9999E-06     98.0356E-12    -73.4596E-12    -57.8020E-12     99.9999E-06     99.9999E-06    -49.4419E-06    -49.5580E-06    -49.5000E-06    -49.4999E-06     99.9999E-06     98.0356E-12    -73.4596E-12    -57.8020E-12    1000.000E-03     999.999E-03     999.999E-03     388.020E-06    -388.565E-06         1.00039    -333.333E-03     999.999E-03    -674.976E-09     133.950E-09     999.999E-03     327.878E-09    -245.685E-09    -193.317E-09
             342              0.              0.              0.              0.     2.05854E-03    -28.3264E-06     127.061E-06     2.05442E-03     99.9851E-06     99.9851E-06    -49.4336E-06    -49.5512E-06    -49.5001E-06    -49.4847E-06     99.9851E-06     235.074E-12    -81.8339E-12     857.980E-15     99.9851E-06     99.9851E-06    -49.4336E-06    -49.5512E-06    -49.5001E-06    -49.4847E-06     99.9851E-06     235.074E-12    -81.8339E-12     857.980E-15     999.850E-03         1.00000         1.00000     545.805E-06    -240.379E-06         1.00024    -333.436E-03     999.849E-03     101.402E-06     204.031E-06         1.00000     786.200E-09    -273.691E-09     2.87037E-09
             343              0.              0.              0.              0.     1.95901E-03    -21.0340E-06    -120.305E-06     1.95520E-03     100.015E-06     100.015E-06    -49.4338E-06    -49.5820E-06    -49.4999E-06    -49.5159E-06     100.015E-06     214.514E-12     22.9621E-12    -3.52918E-12     100.015E-06     100.015E-06    -49.4338E-06    -49.5820E-06    -49.4999E-06    -49.5159E-06     100.015E-06     214.514E-12     22.9621E-12    -3.52918E-12         1.00016     999.997E-03     999.997E-03     336.501E-06    -654.584E-06         1.00065    -333.226E-03         1.00015    -105.592E-06    -212.485E-06     999.997E-03     717.438E-09     76.7959E-09    -11.8034E-09
             344              0.              0.              0.              0.     1.95628E-03    -21.3645E-06    -77.6099E-06     1.95462E-03     100.000E-06     100.000E-06    -49.4266E-06    -49.5734E-06    -49.4999E-06    -49.5001E-06     100.000E-06     80.7976E-12     44.3915E-12    -9.31311E-12     100.000E-06     100.000E-06    -49.4266E-06    -49.5734E-06    -49.4999E-06    -49.5001E-06     100.000E-06     80.7976E-12     44.3915E-12    -9.31311E-12         1.00000         1.00000         1.00000     491.558E-06    -490.743E-06         1.00049    -333.334E-03     999.999E-03     906.170E-09    -86.7149E-09         1.00000     270.226E-09     148.466E-09    -31.1472E-09
             345              0.              0.              0.              0.     1.95514E-03    -21.4294E-06    -21.4294E-06     1.95491E-03     99.9999E-06     99.9999E-06    -49.4272E-06    -49.5727E-06    -49.5000E-06    -49.5000E-06     99.9999E-06    -26.4593E-12    -7.54853E-12    -7.54850E-12     99.9999E-06     99.9999E-06    -49.4272E-06    -49.5727E-06    -49.5000E-06    -49.5000E-06     99.9999E-06    -26.4593E-12    -7.54853E-12    -7.54850E-12              1.     999.999E-03     999.999E-03     486.262E-06    -486.683E-06         1.00049    -333.333E-03     999.998E-03    -209.875E-09    -209.875E-09     999.999E-03    -88.4927E-09    -25.2456E-09    -25.2455E-09
             346              0.              0.              0.              0.     1.95514E-03    -21.4294E-06     21.4294E-06     1.95491E-03     99.9999E-06     99.9999E-06    -49.4272E-06    -49.5727E-06    -49.5000E-06    -49.5000E-06     99.9999E-06     26.4593E-12    -7.54852E-12     7.54853E-12     99.9999E-06     99.9999E-06    -49.4272E-06    -49.5727E-06    -49.5000E-06    -49.5000E-06     99.9999E-06     26.4593E-12    -7.54852E-12     7.54853E-12              1.     999.999E-03     999.999E-03     486.262E-06    -486.683E-06         1.00049    -333.333E-03     999.998E-03    -209.875E-09    -209.875E-09     999.999E-03     88.4926E-09    -25.2455E-09     25.2456E-09
             347              0.              0.              0.              0.     1.95628E-03    -21.3645E-06     77.6099E-06     1.95462E-03     100.000E-06     100.000E-06    -49.4266E-06    -49.5734E-06    -49.4999E-06    -49.5001E-06     100.000E-06    -80.7976E-12     44.3915E-12     9.31311E-12     100.000E-06     100.000E-06    -49.4266E-06    -49.5734E-06    -49.4999E-06    -49.5001E-06     100.000E-06    -80.7976E-12     44.3915E-12     9.31311E-12         1.00000         1.00000         1.00000     491.558E-06    -490.743E-06         1.00049    -333.334E-03     999.999E-03     906.170E-09    -86.7149E-09         1.00000    -270.226E-09     148.467E-09     31.1472E-09
             348              0.              0.              0.              0.     1.95901E-03    -21.0340E-06     120.305E-06     1.95520E-03     100.015E-06     100.015E-06    -49.4338E-06    -49.5820E-06    -49.4999E-06    -49.5159E-06     100.015E-06    -214.514E-12     22.9621E-12     3.52918E-12     100.015E-06     100.015E-06    -49.4338E-06    -49.5820E-06    -49.4999E-06    -49.5159E-06     100.015E-06    -214.514E-12     22.9621E-12     3.52918E-12         1.00016     999.997E-03     999.997E-03     336.501E-06    -654.584E-06         1.00065    -333.226E-03         1.00015    -105.592E-06    -212.485E-06     999.997E-03    -717.438E-09     76.7968E-09     11.8034E-09
             349              0.              0.              0.              0.     1.85883E-03    -28.6373E-06    -127.362E-06     1.85424E-03     99.9837E-06     99.9837E-06    -49.4014E-06    -49.5820E-06    -49.5001E-06    -49.4833E-06     99.9837E-06    -183.183E-12     57.9929E-12     24.0323E-12     99.9837E-06     99.9837E-06    -49.4014E-06    -49.5820E-06    -49.5001E-06    -49.4833E-06     99.9837E-06    -183.183E-12     57.9929E-12     24.0323E-12     999.837E-03         1.00000         1.00000     771.287E-06    -437.334E-06         1.00044    -333.446E-03     999.833E-03     111.017E-06     222.943E-06         1.00000    -612.651E-09     193.956E-09     80.3757E-09
             350              0.              0.              0.              0.     1.85651E-03    -28.2932E-06    -70.7268E-06     1.85494E-03     99.9999E-06     99.9999E-06    -49.4104E-06    -49.5896E-06    -49.5000E-06    -49.4999E-06     99.9999E-06    -59.2427E-12    -10.4162E-12     2.32780E-12     99.9999E-06     99.9999E-06    -49.4104E-06    -49.5896E-06    -49.5000E-06    -49.4999E-06     99.9999E-06    -59.2427E-12    -10.4162E-12     2.32780E-12         1.00000     999.999E-03     999.999E-03     599.172E-06    -599.708E-06         1.00060    -333.333E-03     999.997E-03    -765.314E-09     234.329E-09     999.999E-03    -198.136E-09    -34.8369E-09     7.78573E-09
             351              0.              0.              0.              0.     1.85502E-03    -28.2322E-06    -28.2322E-06     1.85459E-03     100.000E-06     100.000E-06    -49.4112E-06    -49.5888E-06    -49.5000E-06    -49.5000E-06     100.000E-06     32.3487E-12    -9.68837E-12    -9.68835E-12     100.000E-06     100.000E-06    -49.4112E-06    -49.5888E-06    -49.5000E-06    -49.5000E-06     100.000E-06     32.3487E-12    -9.68837E-12    -9.68835E-12         1.00000         1.00000         1.00000     594.396E-06    -593.776E-06         1.00059    -333.334E-03     999.999E-03     310.756E-09     310.756E-09         1.00000     108.190E-09    -32.4021E-09    -32.4021E-09
             352              0.              0.              0.              0.     1.85502E-03    -28.2322E-06     28.2322E-06     1.85459E-03     100.000E-06     100.000E-06    -49.4112E-06    -49.5888E-06    -49.5000E-06    -49.5000E-06     100.000E-06    -32.3487E-12    -9.68836E-12     9.68838E-12     100.000E-06     100.000E-06    -49.4112E-06    -49.5888E-06    -49.5000E-06    -49.5000E-06     100.000E-06    -32.3487E-12    -9.68836E-12     9.68838E-12         1.00000         1.00000         1.00000     594.396E-06    -593.776E-06         1.00059    -333.334E-03     999.999E-03     310.756E-09     310.756E-09         1.00000    -108.190E-09    -32.4021E-09     32.4022E-09
             353              0.              0.              0.              0.     1.85651E-03    -28.2932E-06     70.7268E-06     1.85494E-03     99.9999E-06     99.9999E-06    -49.4104E-06    -49.5896E-06    -49.5000E-06    -49.4999E-06     99.9999E-06     59.2427E-12    -10.4162E-12    -2.32780E-12     99.9999E-06     99.9999E-06    -49.4104E-06    -49.5896E-06    -49.5000E-06    -49.4999E-06     99.9999E-06     59.2427E-12    -10.4162E-12    -2.32780E-12         1.00000     999.999E-03     999.999E-03     599.172E-06    -599.708E-06         1.00060    -333.333E-03     999.997E-03    -765.314E-09     234.329E-09     999.999E-03     198.136E-09    -34.8368E-09    -7.78573E-09
             354              0.              0.              0.              0.     1.85883E-03    -28.6373E-06     127.362E-06     1.85424E-03     99.9837E-06     99.9837E-06    -49.4014E-06    -49.5820E-06    -49.5001E-06    -49.4833E-06     99.9837E-06     183.183E-12     57.9930E-12    -24.0323E-12     99.9837E-06     99.9837E-06    -49.4014E-06    -49.5820E-06    -49.5001E-06    -49.4833E-06     99.9837E-06     183.183E-12     57.9930E-12    -24.0323E-12     999.837E-03         1.00000         1.00000     771.287E-06    -437.334E-06         1.00044    -333.446E-03     999.833E-03     111.017E-06     222.943E-06         1.00000     612.651E-09     193.956E-09    -80.3757E-09
             355              0.              0.              0.              0.     1.75961E-03    -20.6579E-06    -119.938E-06     1.75540E-03     100.017E-06     100.017E-06    -49.4012E-06    -49.6163E-06    -49.4999E-06    -49.5176E-06     100.017E-06     159.816E-12    -119.632E-12    -42.7507E-12     100.017E-06     100.017E-06    -49.4012E-06    -49.6163E-06    -49.4999E-06    -49.5176E-06     100.017E-06     159.816E-12    -119.632E-12    -42.7507E-12         1.00018     999.997E-03     999.997E-03     542.959E-06    -895.669E-06         1.00089    -333.215E-03         1.00017    -117.314E-06    -235.387E-06     999.997E-03     534.502E-09    -400.107E-09    -142.980E-09
             356              0.              0.              0.              0.     1.75641E-03    -21.0164E-06    -77.9696E-06     1.75456E-03     100.000E-06     100.000E-06    -49.3933E-06    -49.6067E-06    -49.5000E-06    -49.5001E-06     100.000E-06     47.4361E-12    -6.90971E-12    -4.85156E-12     100.000E-06     100.000E-06    -49.3933E-06    -49.6067E-06    -49.5000E-06    -49.5001E-06     100.000E-06     47.4361E-12    -6.90971E-12    -4.85156E-12         1.00000         1.00000         1.00000     713.909E-06    -713.372E-06         1.00071    -333.334E-03     999.998E-03     788.728E-09    -246.262E-09         1.00000     158.649E-09    -23.1089E-09    -16.2261E-09
             357              0.              0.              0.              0.     1.75523E-03    -21.0734E-06    -21.0734E-06     1.75497E-03     99.9999E-06     99.9999E-06    -49.3942E-06    -49.6057E-06    -49.5000E-06    -49.5000E-06     99.9999E-06    -32.4719E-12     16.5238E-12     16.5238E-12     99.9999E-06     99.9999E-06    -49.3942E-06    -49.6057E-06    -49.5000E-06    -49.5000E-06     99.9999E-06    -32.4719E-12     16.5238E-12     16.5238E-12         1.00000     999.999E-03     999.999E-03     706.973E-06    -707.561E-06         1.00071    -333.333E-03     999.996E-03    -293.716E-09    -293.716E-09     999.999E-03    -108.602E-09     55.2639E-09     55.2639E-09
             358              0.              0.              0.              0.     1.75523E-03    -21.0734E-06     21.0734E-06     1.75497E-03     99.9999E-06     99.9999E-06    -49.3942E-06    -49.6057E-06    -49.5000E-06    -49.5000E-06     99.9999E-06     32.4719E-12     16.5238E-12    -16.5238E-12     99.9999E-06     99.9999E-06    -49.3942E-06    -49.6057E-06    -49.5000E-06    -49.5000E-06     99.9999E-06     32.4719E-12     16.5238E-12    -16.5238E-12         1.00000     999.999E-03     999.999E-03     706.973E-06    -707.561E-06         1.00071    -333.333E-03     999.996E-03    -293.716E-09    -293.716E-09     999.999E-03     108.602E-09     55.2639E-09    -55.2638E-09
             359              0.              0.              0.              0.     1.75641E-03    -21.0164E-06     77.9696E-06     1.75456E-03     100.000E-06     100.000E-06    -49.3933E-06    -49.6067E-06    -49.5000E-06    -49.5001E-06     100.000E-06    -47.4361E-12    -6.90959E-12     4.85156E-12     100.000E-06     100.000E-06    -49.3933E-06    -49.6067E-06    -49.5000E-06    -49.5001E-06     100.000E-06    -47.4361E-12    -6.90959E-12     4.85156E-12         1.00000         1.00000         1.00000     713.909E-06    -713.372E-06         1.00071    -333.334E-03     999.998E-03     788.728E-09    -246.262E-09         1.00000    -158.649E-09    -23.1089E-09     16.2261E-09
             360              0.              0.              0.              0.     1.75961E-03    -20.6579E-06     119.938E-06     1.75540E-03     100.017E-06     100.017E-06    -49.4012E-06    -49.6163E-06    -49.4999E-06    -49.5176E-06     100.017E-06    -159.816E-12    -119.632E-12     42.7507E-12     100.017E-06     100.017E-06    -49.4012E-06    -49.6163E-06    -49.4999E-06    -49.5176E-06     100.017E-06    -159.816E-12    -119.632E-12     42.7507E-12         1.00018     999.997E-03     999.997E-03     542.959E-06    -895.669E-06         1.00089    -333.215E-03         1.00017    -117.314E-06    -235.387E-06     999.997E-03    -534.502E-09    -400.107E-09     142.980E-09
             361              0.              0.              0.              0.     1.65921E-03    -29.0823E-06    -127.799E-06     1.65403E-03     99.9817E-06     99.9817E-06    -49.3649E-06    -49.6164E-06    -49.5001E-06    -49.4813E-06     99.9817E-06    -145.950E-12     158.367E-12     41.3185E-12     99.9817E-06     99.9817E-06    -49.3649E-06    -49.6164E-06    -49.5001E-06    -49.4813E-06     99.9817E-06    -145.950E-12     158.367E-12     41.3185E-12     999.818E-03         1.00000         1.00000     1.02835E-03    -653.707E-06         1.00066    -333.459E-03     999.811E-03     124.651E-06     250.002E-06         1.00000    -488.128E-09     529.656E-09     138.189E-09
             362              0.              0.              0.              0.     1.65675E-03    -28.7084E-06    -70.2988E-06     1.65501E-03     99.9999E-06     99.9999E-06    -49.3752E-06    -49.6247E-06    -49.5000E-06    -49.4999E-06     99.9999E-06    -42.5842E-12     3.97581E-12    -11.2733E-12     99.9999E-06     99.9999E-06    -49.3752E-06    -49.6247E-06    -49.5000E-06    -49.4999E-06     99.9999E-06    -42.5842E-12     3.97581E-12    -11.2733E-12         1.00000     999.999E-03     999.999E-03     834.198E-06    -834.821E-06         1.00083    -333.333E-03     999.995E-03    -845.932E-09     228.349E-09     999.999E-03    -142.422E-09     13.2977E-09    -37.7031E-09
             363              0.              0.              0.              0.     1.65502E-03    -28.6557E-06    -28.6557E-06     1.65453E-03     100.000E-06     100.000E-06    -49.3764E-06    -49.6237E-06    -49.5000E-06    -49.5000E-06     100.000E-06     30.3910E-12    -31.9326E-12    -31.9326E-12     100.000E-06     100.000E-06    -49.3764E-06    -49.6237E-06    -49.5000E-06    -49.5000E-06     100.000E-06     30.3910E-12    -31.9326E-12    -31.9326E-12         1.00000         1.00000         1.00000     827.389E-06    -826.772E-06         1.00083    -333.334E-03     999.997E-03     309.039E-09     309.039E-09         1.00000     101.642E-09    -106.797E-09    -106.797E-09
             364              0.              0.              0.              0.     1.65502E-03    -28.6557E-06     28.6557E-06     1.65453E-03     100.000E-06     100.000E-06    -49.3764E-06    -49.6237E-06    -49.5000E-06    -49.5000E-06     100.000E-06    -30.3910E-12    -31.9326E-12     31.9326E-12     100.000E-06     100.000E-06    -49.3764E-06    -49.6237E-06    -49.5000E-06    -49.5000E-06     100.000E-06    -30.3910E-12    -31.9326E-12     31.9326E-12         1.00000         1.00000         1.00000     827.389E-06    -826.772E-06         1.00083    -333.334E-03     999.997E-03     309.039E-09     309.039E-09         1.00000    -101.642E-09    -106.797E-09     106.797E-09
             365              0.              0.              0.              0.     1.65675E-03    -28.7084E-06     70.2988E-06     1.65501E-03     99.9999E-06     99.9999E-06    -49.3752E-06    -49.6247E-06    -49.5000E-06    -49.4999E-06     99.9999E-06     42.5842E-12     3.97594E-12     11.2733E-12     99.9999E-06     99.9999E-06    -49.3752E-06    -49.6247E-06    -49.5000E-06    -49.4999E-06     99.9999E-06     42.5842E-12     3.97594E-12     11.2733E-12         1.00000     999.999E-03     999.999E-03     834.198E-06    -834.821E-06         1.00083    -333.333E-03     999.995E-03    -845.932E-09     228.349E-09     999.999E-03     142.422E-09     13.2977E-09     37.7031E-09
             366              0.              0.              0.              0.     1.65921E-03    -29.0823E-06     127.799E-06     1.65403E-03     99.9817E-06     99.9817E-06    -49.3649E-06    -49.6164E-06    -49.5001E-06    -49.4813E-06     99.9817E-06     145.950E-12     158.367E-12    -41.3185E-12     99.9817E-06     99.9817E-06    -49.3649E-06    -49.6164E-06    -49.5001E-06    -49.4813E-06     99.9817E-06     145.950E-12     158.367E-12    -41.3185E-12     999.818E-03         1.00000         1.00000     1.02835E-03    -653.707E-06         1.00066    -333.459E-03     999.811E-03     124.651E-06     250.002E-06         1.00000     488.128E-09     529.656E-09    -138.189E-09
             367              0.              0.              0.              0.     1.56033E-03    -20.1399E-06    -119.425E-06     1.55562E-03     100.019E-06     100.019E-06    -49.3648E-06    -49.6551E-06    -49.4999E-06    -49.5200E-06     100.019E-06     137.687E-12    -200.393E-12    -47.4158E-12     100.019E-06     100.019E-06    -49.3648E-06    -49.6551E-06    -49.4999E-06    -49.5200E-06     100.019E-06     137.687E-12    -200.393E-12    -47.4158E-12         1.00020     999.997E-03     999.997E-03     770.559E-06    -1.17069E-03         1.00117    -333.199E-03         1.00019    -133.145E-06    -266.980E-06     999.997E-03     460.490E-09    -670.212E-09    -158.579E-09
             368              0.              0.              0.              0.     1.55660E-03    -20.5305E-06    -78.4700E-06     1.55448E-03     100.000E-06     100.000E-06    -49.3560E-06    -49.6440E-06    -49.5000E-06    -49.5001E-06     100.000E-06     36.9424E-12    -5.98666E-12     10.5075E-12     100.000E-06     100.000E-06    -49.3560E-06    -49.6440E-06    -49.5000E-06    -49.5001E-06     100.000E-06     36.9424E-12    -5.98666E-12     10.5075E-12         1.00000         1.00000         1.00000     963.507E-06    -962.915E-06         1.00096    -333.334E-03     999.995E-03     864.165E-09    -265.936E-09         1.00000     123.553E-09    -20.0221E-09     35.1433E-09
             369              0.              0.              0.              0.     1.55532E-03    -20.5784E-06    -20.5784E-06     1.55505E-03     99.9999E-06     99.9999E-06    -49.3572E-06    -49.6427E-06    -49.5000E-06    -49.5000E-06     99.9999E-06    -31.9009E-12     34.2154E-12     34.2154E-12     99.9999E-06     99.9999E-06    -49.3572E-06    -49.6427E-06    -49.5000E-06    -49.5000E-06     99.9999E-06    -31.9009E-12     34.2154E-12     34.2154E-12         1.00000     999.999E-03     999.999E-03     954.200E-06    -955.156E-06         1.00095    -333.333E-03     999.994E-03    -477.201E-09    -477.201E-09     999.999E-03    -106.692E-09     114.433E-09     114.433E-09
             370              0.              0.              0.              0.     1.55532E-03    -20.5784E-06     20.5784E-06     1.55505E-03     99.9999E-06     99.9999E-06    -49.3572E-06    -49.6427E-06    -49.5000E-06    -49.5000E-06     99.9999E-06     31.9009E-12     34.2154E-12    -34.2154E-12     99.9999E-06     99.9999E-06    -49.3572E-06    -49.6427E-06    -49.5000E-06    -49.5000E-06     99.9999E-06     31.9009E-12     34.2154E-12    -34.2154E-12         1.00000     999.999E-03     999.999E-03     954.200E-06    -955.156E-06         1.00095    -333.333E-03     999.994E-03    -477.201E-09    -477.201E-09     999.999E-03     106.692E-09     114.433E-09    -114.433E-09
             371              0.              0.              0.              0.     1.55660E-03    -20.5305E-06     78.4700E-06     1.55448E-03     100.000E-06     100.000E-06    -49.3560E-06    -49.6440E-06    -49.5000E-06    -49.5001E-06     100.000E-06    -36.9424E-12    -5.98665E-12    -10.5075E-12     100.000E-06     100.000E-06    -49.3560E-06    -49.6440E-06    -49.5000E-06    -49.5001E-06     100.000E-06    -36.9424E-12    -5.98665E-12    -10.5075E-12         1.00000         1.00000         1.00000     963.507E-06    -962.915E-06         1.00096    -333.334E-03     999.995E-03     864.165E-09    -265.936E-09         1.00000    -123.553E-09    -20.0221E-09    -35.1433E-09
             372              0.              0.              0.              0.     1.56033E-03    -20.1399E-06     119.425E-06     1.55562E-03     100.019E-06     100.019E-06    -49.3648E-06    -49.6551E-06    -49.4999E-06    -49.5200E-06     100.019E-06    -137.687E-12    -200.393E-12     47.4158E-12     100.019E-06     100.019E-06    -49.3648E-06    -49.6551E-06    -49.4999E-06    -49.5200E-06     100.019E-06    -137.687E-12    -200.393E-12     47.4158E-12         1.00020     999.997E-03     999.997E-03     770.559E-06    -1.17069E-03         1.00117    -333.199E-03         1.00019    -133.145E-06    -266.980E-06     999.997E-03    -460.490E-09    -670.212E-09     158.579E-09
             373              0.              0.              0.              0.     1.45976E-03    -29.6779E-06    -128.391E-06     1.45380E-03     99.9791E-06     99.9791E-06    -49.3235E-06    -49.6552E-06    -49.5001E-06    -49.4786E-06     99.9791E-06    -146.914E-12     287.770E-12     64.0354E-12     99.9791E-06     99.9791E-06    -49.3235E-06    -49.6552E-06    -49.5001E-06    -49.4786E-06     99.9791E-06    -146.914E-12     287.770E-12     64.0354E-12     999.793E-03         1.00000         1.00000     1.32392E-03    -895.065E-06         1.00090    -333.477E-03     999.782E-03     142.487E-06     286.381E-06         1.00000    -491.352E-09     962.442E-09     214.170E-09
             374              0.              0.              0.              0.     1.45705E-03    -29.2695E-06    -69.7214E-06     1.45509E-03     99.9999E-06     99.9999E-06    -49.3354E-06    -49.6646E-06    -49.5001E-06    -49.4999E-06     99.9999E-06    -39.8559E-12     49.2918E-12     41.1847E-12     99.9999E-06     99.9999E-06    -49.3354E-06    -49.6646E-06    -49.5001E-06    -49.4999E-06     99.9999E-06    -39.8559E-12     49.2918E-12     41.1847E-12         1.00000     999.999E-03     999.999E-03     1.10028E-03    -1.10173E-03         1.00110    -333.332E-03     999.992E-03    -1.45234E-06     189.175E-12     999.999E-03    -133.297E-09     164.856E-09     137.744E-09
             375              0.              0.              0.              0.     1.45504E-03    -29.2268E-06    -29.2268E-06     1.45445E-03     100.000E-06     100.000E-06    -49.3369E-06    -49.6632E-06    -49.5001E-06    -49.5001E-06     100.000E-06     33.6013E-12     9.16701E-12     9.16701E-12     100.000E-06     100.000E-06    -49.3369E-06    -49.6632E-06    -49.5001E-06    -49.5001E-06     100.000E-06     33.6013E-12     9.16701E-12     9.16701E-12         1.00001         1.00000         1.00000     1.09115E-03    -1.09121E-03         1.00109    -333.334E-03     999.994E-03    -29.2493E-09    -29.2493E-09         1.00000     112.379E-09     30.6591E-09     30.6591E-09
             376              0.              0.              0.              0.     1.45504E-03    -29.2268E-06     29.2268E-06     1.45445E-03     100.000E-06     100.000E-06    -49.3369E-06    -49.6632E-06    -49.5001E-06    -49.5001E-06     100.000E-06    -33.6013E-12     9.16701E-12    -9.16699E-12     100.000E-06     100.000E-06    -49.3369E-06    -49.6632E-06    -49.5001E-06    -49.5001E-06     100.000E-06    -33.6013E-12     9.16701E-12    -9.16699E-12         1.00001         1.00000         1.00000     1.09115E-03    -1.09121E-03         1.00109    -333.334E-03     999.994E-03    -29.2493E-09    -29.2493E-09         1.00000    -112.379E-09     30.6591E-09    -30.6590E-09
             377              0.              0.              0.              0.     1.45705E-03    -29.2695E-06     69.7214E-06     1.45509E-03     99.9999E-06     99.9999E-06    -49.3354E-06    -49.6646E-06    -49.5001E-06    -49.4999E-06     99.9999E-06     39.8559E-12     49.2918E-12    -41.1847E-12     99.9999E-06     99.9999E-06    -49.3354E-06    -49.6646E-06    -49.5001E-06    -49.4999E-06     99.9999E-06     39.8559E-12     49.2918E-12    -41.1847E-12         1.00000     999.999E-03     999.999E-03     1.10028E-03    -1.10173E-03         1.00110    -333.332E-03     999.992E-03    -1.45234E-06     189.175E-12     999.999E-03     133.297E-09     164.856E-09    -137.743E-09
             378              0.              0.              0.              0.     1.45976E-03    -29.6779E-06     128.391E-06     1.45380E-03     99.9791E-06     99.9791E-06    -49.3235E-06    -49.6552E-06    -49.5001E-06    -49.4786E-06     99.9791E-06     146.914E-12     287.770E-12    -64.0354E-12     99.9791E-06     99.9791E-06    -49.3235E-06    -49.6552E-06    -49.5001E-06    -49.4786E-06     99.9791E-06     146.914E-12     287.770E-12    -64.0354E-12     999.793E-03         1.00000         1.00000     1.32392E-03    -895.065E-06         1.00090    -333.477E-03     999.782E-03     142.487E-06     286.381E-06         1.00000     491.352E-09     962.442E-09    -214.168E-09
             379              0.              0.              0.              0.     1.36120E-03    -19.4619E-06    -118.749E-06     1.35587E-03     100.023E-06     100.023E-06    -49.3234E-06    -49.6997E-06    -49.5000E-06    -49.5230E-06     100.023E-06     178.399E-12    -248.776E-12     175.723E-12     100.023E-06     100.023E-06    -49.3234E-06    -49.6997E-06    -49.5000E-06    -49.5230E-06     100.023E-06     178.399E-12    -248.776E-12     175.723E-12         1.00023     999.996E-03     999.996E-03     1.02644E-03    -1.49065E-03         1.00149    -333.177E-03         1.00022    -155.001E-06    -309.198E-06     999.996E-03     596.651E-09    -832.028E-09     587.703E-09
             380              0.              0.              0.              0.     1.35686E-03    -19.8890E-06    -79.1301E-06     1.35440E-03     100.000E-06     100.000E-06    -49.3134E-06    -49.6868E-06    -49.5000E-06    -49.5002E-06     100.000E-06     46.3122E-12     34.8493E-12     143.067E-12     100.000E-06     100.000E-06    -49.3134E-06    -49.6868E-06    -49.5000E-06    -49.5002E-06     100.000E-06     46.3122E-12     34.8493E-12     143.067E-12         1.00001         1.00000         1.00000     1.24870E-03    -1.24926E-03         1.00125    -333.334E-03     999.993E-03     323.809E-09    -876.229E-09         1.00000     154.890E-09     116.553E-09     478.485E-09
             381              0.              0.              0.              0.     1.35542E-03    -19.9258E-06    -19.9258E-06     1.35513E-03     100.000E-06     100.000E-06    -49.3150E-06    -49.6851E-06    -49.5000E-06    -49.5000E-06     100.000E-06    -42.8871E-12     55.2053E-12     55.2055E-12     100.000E-06     100.000E-06    -49.3150E-06    -49.6851E-06    -49.5000E-06    -49.5000E-06     100.000E-06    -42.8871E-12     55.2053E-12     55.2055E-12         1.00001     999.999E-03     999.999E-03     1.23673E-03    -1.23893E-03         1.00124    -333.332E-03     999.991E-03    -1.10024E-06    -1.10024E-06     999.999E-03    -143.435E-09     184.633E-09     184.633E-09
             382              0.              0.              0.              0.     1.35542E-03    -19.9258E-06     19.9258E-06     1.35513E-03     100.000E-06     100.000E-06    -49.3150E-06    -49.6851E-06    -49.5000E-06    -49.5000E-06     100.000E-06     42.8871E-12     55.2055E-12    -55.2053E-12     100.000E-06     100.000E-06    -49.3150E-06    -49.6851E-06    -49.5000E-06    -49.5000E-06     100.000E-06     42.8871E-12     55.2055E-12    -55.2053E-12         1.00001     999.999E-03     999.999E-03     1.23673E-03    -1.23893E-03         1.00124    -333.332E-03     999.991E-03    -1.10024E-06    -1.10024E-06     999.999E-03     143.435E-09     184.633E-09    -184.633E-09
             383              0.              0.              0.              0.     1.35686E-03    -19.8890E-06     79.1301E-06     1.35440E-03     100.000E-06     100.000E-06    -49.3134E-06    -49.6868E-06    -49.5000E-06    -49.5002E-06     100.000E-06    -46.3121E-12     34.8496E-12    -143.067E-12     100.000E-06     100.000E-06    -49.3134E-06    -49.6868E-06    -49.5000E-06    -49.5002E-06     100.000E-06    -46.3121E-12     34.8496E-12    -143.067E-12         1.00001         1.00000         1.00000     1.24870E-03    -1.24926E-03         1.00125    -333.334E-03     999.993E-03     323.809E-09    -876.229E-09         1.00000    -154.890E-09     116.554E-09    -478.484E-09
             384              0.              0.              0.              0.     1.36120E-03    -19.4619E-06     118.749E-06     1.35587E-03     100.023E-06     100.023E-06    -49.3234E-06    -49.6997E-06    -49.5000E-06    -49.5230E-06     100.023E-06    -178.399E-12    -248.776E-12    -175.723E-12     100.023E-06     100.023E-06    -49.3234E-06    -49.6997E-06    -49.5000E-06    -49.5230E-06     100.023E-06    -178.399E-12    -248.776E-12    -175.723E-12         1.00023     999.996E-03     999.996E-03     1.02644E-03    -1.49065E-03         1.00149    -333.177E-03         1.00022    -155.001E-06    -309.198E-06     999.996E-03    -596.651E-09    -832.027E-09    -587.701E-09
             385              0.              0.              0.              0.     1.26053E-03    -30.4437E-06    -129.158E-06     1.25353E-03     99.9756E-06     99.9756E-06    -49.2752E-06    -49.7000E-06    -49.5003E-06    -49.4748E-06     99.9756E-06    -171.570E-12     635.743E-12     80.4405E-12     99.9756E-06     99.9756E-06    -49.2752E-06    -49.7000E-06    -49.5003E-06    -49.4748E-06     99.9756E-06    -171.570E-12     635.743E-12     80.4405E-12     999.760E-03         1.00000         1.00000     1.67069E-03    -1.17075E-03         1.00117    -333.501E-03     999.742E-03     164.907E-06     335.049E-06         1.00000    -573.814E-09     2.12623E-06     269.032E-09
             386              0.              0.              0.              0.     1.25743E-03    -29.9975E-06    -68.9729E-06     1.25518E-03     100.000E-06     100.000E-06    -49.2893E-06    -49.7107E-06    -49.5003E-06    -49.4997E-06     100.000E-06     47.2132E-12     341.087E-12     509.384E-12     100.000E-06     100.000E-06    -49.2893E-06    -49.7107E-06    -49.5003E-06    -49.4997E-06     100.000E-06     47.2132E-12     341.087E-12     509.384E-12         1.00001     999.999E-03     999.999E-03     1.40807E-03    -1.41051E-03         1.00141    -333.332E-03     999.988E-03    -3.06813E-06     637.956E-09     999.999E-03     157.903E-09     1.14076E-06     1.70363E-06
             387              0.              0.              0.              0.     1.25508E-03    -29.9671E-06    -29.9671E-06     1.25436E-03     100.001E-06     100.001E-06    -49.2917E-06    -49.7090E-06    -49.5004E-06    -49.5004E-06     100.001E-06     132.998E-12     469.164E-12     469.164E-12     100.001E-06     100.001E-06    -49.2917E-06    -49.7090E-06    -49.5004E-06    -49.5004E-06     100.001E-06     132.998E-12     469.164E-12     469.164E-12         1.00001         1.00001         1.00001     1.39424E-03    -1.39712E-03         1.00140    -333.334E-03     999.995E-03    -1.43636E-06    -1.43636E-06         1.00001     444.811E-09     1.56911E-06     1.56911E-06
             388              0.              0.              0.              0.     1.25508E-03    -29.9671E-06     29.9671E-06     1.25436E-03     100.001E-06     100.001E-06    -49.2917E-06    -49.7090E-06    -49.5004E-06    -49.5004E-06     100.001E-06    -132.998E-12     469.164E-12    -469.164E-12     100.001E-06     100.001E-06    -49.2917E-06    -49.7090E-06    -49.5004E-06    -49.5004E-06     100.001E-06    -132.998E-12     469.164E-12    -469.164E-12         1.00001         1.00001         1.00001     1.39424E-03    -1.39712E-03         1.00140    -333.334E-03     999.995E-03    -1.43636E-06    -1.43636E-06         1.00001    -444.811E-09     1.56911E-06    -1.56911E-06
             389              0.              0.              0.              0.     1.25743E-03    -29.9975E-06     68.9729E-06     1.25518E-03     100.000E-06     100.000E-06    -49.2893E-06    -49.7107E-06    -49.5003E-06    -49.4997E-06     100.000E-06    -47.2131E-12     341.087E-12    -509.384E-12     100.000E-06     100.000E-06    -49.2893E-06    -49.7107E-06    -49.5003E-06    -49.4997E-06     100.000E-06    -47.2131E-12     341.087E-12    -509.384E-12         1.00001     999.999E-03     999.999E-03     1.40807E-03    -1.41051E-03         1.00141    -333.332E-03     999.988E-03    -3.06813E-06     637.956E-09     999.999E-03    -157.903E-09     1.14076E-06    -1.70363E-06
             390              0.              0.              0.              0.     1.26053E-03    -30.4437E-06     129.158E-06     1.25353E-03     99.9756E-06     99.9756E-06    -49.2752E-06    -49.7000E-06    -49.5003E-06    -49.4748E-06     99.9756E-06     171.570E-12     635.744E-12    -80.4405E-12     99.9756E-06     99.9756E-06    -49.2752E-06    -49.7000E-06    -49.5003E-06    -49.4748E-06     99.9756E-06     171.570E-12     635.744E-12    -80.4405E-12     999.760E-03         1.00000         1.00000     1.67069E-03    -1.17075E-03         1.00117    -333.501E-03     999.742E-03     164.907E-06     335.049E-06         1.00000     573.814E-09     2.12623E-06    -269.032E-09
             391              0.              0.              0.              0.     1.16230E-03    -18.6030E-06    -117.884E-06     1.15616E-03     100.027E-06     100.027E-06    -49.2749E-06    -49.7523E-06    -49.5000E-06    -49.5271E-06     100.027E-06     509.567E-12    -248.030E-12     1.10156E-09     100.027E-06     100.027E-06    -49.2749E-06    -49.7523E-06    -49.5000E-06    -49.5271E-06     100.027E-06     509.567E-12    -248.030E-12     1.10156E-09         1.00028     999.993E-03     999.993E-03     1.32149E-03    -1.87187E-03         1.00187    -333.148E-03         1.00025    -184.300E-06    -366.063E-06     999.993E-03     1.70424E-06    -829.531E-09     3.68414E-06
             392              0.              0.              0.              0.     1.15723E-03    -19.0679E-06    -79.9753E-06     1.15430E-03     100.000E-06     100.000E-06    -49.2637E-06    -49.7368E-06    -49.5000E-06    -49.5005E-06     100.000E-06     180.837E-12     89.8253E-12     365.707E-12     100.000E-06     100.000E-06    -49.2637E-06    -49.7368E-06    -49.5000E-06    -49.5005E-06     100.000E-06     180.837E-12     89.8253E-12     365.707E-12         1.00001         1.00000         1.00000     1.58200E-03    -1.58305E-03         1.00159    -333.334E-03     999.990E-03     1.04090E-06    -2.08104E-06         1.00000     604.807E-09     300.419E-09     1.22310E-06
             393              0.              0.              0.              0.     1.15554E-03    -19.0923E-06    -19.0923E-06     1.15522E-03     100.000E-06     100.000E-06    -49.2660E-06    -49.7341E-06    -49.5000E-06    -49.5000E-06     100.000E-06    -73.9463E-12    -185.072E-12    -185.072E-12     100.000E-06     100.000E-06    -49.2660E-06    -49.7341E-06    -49.5000E-06    -49.5000E-06     100.000E-06    -73.9463E-12    -185.072E-12    -185.072E-12         1.00001         1.00000         1.00000     1.56950E-03    -1.56149E-03         1.00157    -333.337E-03     999.986E-03     4.00768E-06     4.00768E-06         1.00000    -247.312E-09    -618.970E-09    -618.970E-09
             394              0.              0.              0.              0.     1.15554E-03    -19.0923E-06     19.0923E-06     1.15522E-03     100.000E-06     100.000E-06    -49.2660E-06    -49.7341E-06    -49.5000E-06    -49.5000E-06     100.000E-06     73.9463E-12    -185.072E-12     185.072E-12     100.000E-06     100.000E-06    -49.2660E-06    -49.7341E-06    -49.5000E-06    -49.5000E-06     100.000E-06     73.9463E-12    -185.072E-12     185.072E-12         1.00001         1.00000         1.00000     1.56950E-03    -1.56149E-03         1.00157    -333.337E-03     999.986E-03     4.00768E-06     4.00768E-06         1.00000     247.312E-09    -618.970E-09     618.970E-09
             395              0.              0.              0.              0.     1.15723E-03    -19.0679E-06     79.9753E-06     1.15430E-03     100.000E-06     100.000E-06    -49.2637E-06    -49.7368E-06    -49.5000E-06    -49.5005E-06     100.000E-06    -180.837E-12     89.8253E-12    -365.707E-12     100.000E-06     100.000E-06    -49.2637E-06    -49.7368E-06    -49.5000E-06    -49.5005E-06     100.000E-06    -180.837E-12     89.8253E-12    -365.707E-12         1.00001         1.00000         1.00000     1.58200E-03    -1.58305E-03         1.00159    -333.334E-03     999.990E-03     1.04090E-06    -2.08104E-06         1.00000    -604.807E-09     300.419E-09    -1.22310E-06
             396              0.              0.              0.              0.     1.16230E-03    -18.6030E-06     117.884E-06     1.15616E-03     100.027E-06     100.027E-06    -49.2749E-06    -49.7523E-06    -49.5000E-06    -49.5271E-06     100.027E-06    -509.567E-12    -248.030E-12    -1.10156E-09     100.027E-06     100.027E-06    -49.2749E-06    -49.7523E-06    -49.5000E-06    -49.5271E-06     100.027E-06    -509.567E-12    -248.030E-12    -1.10156E-09         1.00028     999.993E-03     999.993E-03     1.32149E-03    -1.87187E-03         1.00187    -333.148E-03         1.00025    -184.300E-06    -366.063E-06     999.993E-03    -1.70424E-06    -829.531E-09    -3.68414E-06
             397              0.              0.              0.              0.     1.06169E-03    -31.4021E-06    -130.132E-06     1.05321E-03     99.9694E-06     99.9694E-06    -49.2174E-06    -49.7515E-06    -49.4992E-06    -49.4697E-06     99.9694E-06    -346.884E-12    -622.669E-12    -1.34196E-09     99.9694E-06     99.9694E-06    -49.2174E-06    -49.7515E-06    -49.4992E-06    -49.4697E-06     99.9694E-06    -346.884E-12    -622.669E-12    -1.34196E-09     999.701E-03    1000.000E-03    1000.000E-03     2.09461E-03    -1.47791E-03         1.00148    -333.539E-03     999.673E-03     209.679E-06     407.043E-06    1000.000E-03    -1.16015E-06    -2.08251E-06    -4.48815E-06
             398              0.              0.              0.              0.     1.05792E-03    -30.9201E-06    -68.0244E-06     1.05528E-03     99.9984E-06     99.9984E-06    -49.2343E-06    -49.7640E-06    -49.4993E-06    -49.4990E-06     99.9984E-06     347.773E-12    -748.446E-12    -403.687E-12     99.9984E-06     99.9984E-06    -49.2343E-06    -49.7640E-06    -49.4993E-06    -49.4990E-06     99.9984E-06     347.773E-12    -748.446E-12    -403.687E-12     999.993E-03     999.998E-03     999.998E-03     1.78622E-03    -1.75687E-03         1.00176    -333.343E-03     999.965E-03     13.7061E-06     15.6663E-06     999.998E-03     1.16312E-06    -2.50317E-06    -1.35012E-06
             399              0.              0.              0.              0.     1.05516E-03    -30.9005E-06    -30.9005E-06     1.05426E-03     99.9995E-06     99.9995E-06    -49.2378E-06    -49.7617E-06    -49.4997E-06    -49.4997E-06     99.9995E-06     521.215E-12     267.292E-12     267.292E-12     99.9995E-06     99.9995E-06    -49.2378E-06    -49.7617E-06    -49.4997E-06    -49.4997E-06     99.9995E-06     521.215E-12     267.292E-12     267.292E-12         1.00000         1.00001         1.00001     1.76537E-03    -1.73857E-03         1.00175    -333.345E-03     999.977E-03     13.4020E-06     13.4020E-06         1.00001     1.74319E-06     893.951E-09     893.951E-09
             400              0.              0.              0.              0.     1.05516E-03    -30.9005E-06     30.9005E-06     1.05426E-03     99.9995E-06     99.9995E-06    -49.2378E-06    -49.7617E-06    -49.4997E-06    -49.4997E-06     99.9995E-06    -521.215E-12     267.292E-12    -267.291E-12     99.9995E-06     99.9995E-06    -49.2378E-06    -49.7617E-06    -49.4997E-06    -49.4997E-06     99.9995E-06    -521.215E-12     267.292E-12    -267.291E-12         1.00000         1.00001         1.00001     1.76537E-03    -1.73857E-03         1.00175    -333.345E-03     999.977E-03     13.4020E-06     13.4020E-06         1.00001    -1.74319E-06     893.951E-09    -893.951E-09
             401              0.              0.              0.              0.     1.05792E-03    -30.9201E-06     68.0244E-06     1.05528E-03     99.9984E-06     99.9984E-06    -49.2343E-06    -49.7640E-06    -49.4993E-06    -49.4990E-06     99.9984E-06    -347.773E-12    -748.446E-12     403.687E-12     99.9984E-06     99.9984E-06    -49.2343E-06    -49.7640E-06    -49.4993E-06    -49.4990E-06     99.9984E-06    -347.773E-12    -748.446E-12     403.687E-12     999.993E-03     999.998E-03     999.998E-03     1.78622E-03    -1.75687E-03         1.00176    -333.343E-03     999.965E-03     13.7061E-06     15.6663E-06     999.998E-03    -1.16312E-06    -2.50317E-06     1.35012E-06
             402              0.              0.              0.              0.     1.06169E-03    -31.4021E-06     130.132E-06     1.05321E-03     99.9694E-06     99.9694E-06    -49.2174E-06    -49.7515E-06    -49.4992E-06    -49.4697E-06     99.9694E-06     346.884E-12    -622.669E-12     1.34196E-09     99.9694E-06     99.9694E-06    -49.2174E-06    -49.7515E-06    -49.4992E-06    -49.4697E-06     99.9694E-06     346.884E-12    -622.669E-12     1.34196E-09     999.701E-03    1000.000E-03    1000.000E-03     2.09461E-03    -1.47791E-03         1.00148    -333.539E-03     999.673E-03     209.679E-06     407.043E-06    1000.000E-03     1.16015E-06    -2.08251E-06     4.48815E-06
             403              0.              0.              0.              0.     963.765E-06    -17.5348E-06    -116.786E-06     956.502E-06     100.030E-06     100.030E-06    -49.2144E-06    -49.8160E-06    -49.4962E-06    -49.5342E-06     100.030E-06     1.26153E-09    -2.58790E-09    -4.89637E-09     100.030E-06     100.030E-06    -49.2144E-06    -49.8160E-06    -49.4962E-06    -49.5342E-06     100.030E-06     1.26153E-09    -2.58790E-09    -4.89637E-09         1.00031         1.00000         1.00000     1.71082E-03    -2.31333E-03         1.00231    -333.133E-03         1.00028    -174.151E-06    -428.324E-06         1.00000     4.21916E-06    -8.65518E-06    -16.3758E-06
             404              0.              0.              0.              0.     957.804E-06    -18.0300E-06    -81.0325E-06     954.199E-06     99.9961E-06     99.9961E-06    -49.2009E-06    -49.7951E-06    -49.4962E-06    -49.4998E-06     99.9960E-06     239.577E-12    -2.46810E-09    -6.47978E-09     99.9961E-06     99.9961E-06    -49.2009E-06    -49.7951E-06    -49.4962E-06    -49.4998E-06     99.9960E-06     239.577E-12    -2.46810E-09    -6.47978E-09     999.972E-03     999.993E-03     999.993E-03     2.02027E-03    -1.95413E-03         1.00195    -333.353E-03     999.937E-03     45.2885E-06     20.8725E-06     999.993E-03     801.262E-09    -8.25453E-06    -21.6715E-06
             405              0.              0.              0.              0.     955.674E-06    -18.0503E-06    -18.0503E-06     955.333E-06     99.9919E-06     99.9919E-06    -49.2037E-06    -49.7881E-06    -49.4959E-06    -49.4959E-06     99.9919E-06    -391.188E-12    -4.03159E-09    -4.03159E-09     99.9919E-06     99.9919E-06    -49.2037E-06    -49.7881E-06    -49.4959E-06    -49.4959E-06     99.9919E-06    -391.188E-12    -4.03159E-09    -4.03159E-09     999.930E-03     999.980E-03     999.980E-03     2.01542E-03    -1.89340E-03         1.00187    -333.367E-03     999.896E-03     61.0138E-06     61.0138E-06     999.980E-03    -1.30832E-06    -13.4836E-06    -13.4836E-06
             406              0.              0.              0.              0.     955.674E-06    -18.0503E-06     18.0503E-06     955.333E-06     99.9919E-06     99.9919E-06    -49.2037E-06    -49.7881E-06    -49.4959E-06    -49.4959E-06     99.9919E-06     391.188E-12    -4.03159E-09     4.03159E-09     99.9919E-06     99.9919E-06    -49.2037E-06    -49.7881E-06    -49.4959E-06    -49.4959E-06     99.9919E-06     391.188E-12    -4.03159E-09     4.03159E-09     999.930E-03     999.980E-03     999.980E-03     2.01542E-03    -1.89340E-03         1.00187    -333.367E-03     999.896E-03     61.0138E-06     61.0138E-06     999.980E-03     1.30832E-06    -13.4836E-06     13.4836E-06
             407              0.              0.              0.              0.     957.804E-06    -18.0300E-06     81.0325E-06     954.199E-06     99.9961E-06     99.9961E-06    -49.2009E-06    -49.7951E-06    -49.4962E-06    -49.4998E-06     99.9960E-06    -239.577E-12    -2.46810E-09     6.47978E-09     99.9961E-06     99.9961E-06    -49.2009E-06    -49.7951E-06    -49.4962E-06    -49.4998E-06     99.9960E-06    -239.577E-12    -2.46810E-09     6.47978E-09     999.972E-03     999.993E-03     999.993E-03     2.02027E-03    -1.95413E-03         1.00195    -333.353E-03     999.937E-03     45.2885E-06     20.8725E-06     999.993E-03    -801.262E-09    -8.25453E-06     21.6715E-06
             408              0.              0.              0.              0.     963.765E-06    -17.5348E-06     116.786E-06     956.502E-06     100.030E-06     100.030E-06    -49.2144E-06    -49.8160E-06    -49.4962E-06    -49.5342E-06     100.030E-06    -1.26153E-09    -2.58790E-09     4.89637E-09     100.030E-06     100.030E-06    -49.2144E-06    -49.8160E-06    -49.4962E-06    -49.5342E-06     100.030E-06    -1.26153E-09    -2.58790E-09     4.89637E-09         1.00031         1.00000         1.00000     1.71082E-03    -2.31333E-03         1.00231    -333.133E-03         1.00028    -174.151E-06    -428.324E-06         1.00000    -4.21916E-06    -8.65518E-06     16.3758E-06
             409              0.              0.              0.              0.     863.515E-06    -32.5805E-06    -131.351E-06     852.844E-06     99.9567E-06     99.9567E-06    -49.1430E-06    -49.8129E-06    -49.4858E-06    -49.4700E-06     99.9567E-06    -3.68165E-09    -19.3031E-09    -14.8193E-09     99.9567E-06     99.9567E-06    -49.1430E-06    -49.8129E-06    -49.4858E-06    -49.4700E-06     99.9567E-06    -3.68165E-09    -19.3031E-09    -14.8193E-09     999.577E-03         1.00000         1.00000     2.68161E-03    -1.79962E-03         1.00180    -333.629E-03     999.534E-03     388.067E-06     493.986E-06         1.00000    -12.3132E-06    -64.5589E-06    -49.5629E-06
             410              0.              0.              0.              0.     858.611E-06    -32.0791E-06    -66.8257E-06     855.405E-06     99.9850E-06     99.9850E-06    -49.1600E-06    -49.8248E-06    -49.4854E-06    -49.4994E-06     99.9850E-06    -2.90890E-09    -20.0513E-09    -27.3752E-09     99.9850E-06     99.9850E-06    -49.1600E-06    -49.8248E-06    -49.4854E-06    -49.4994E-06     99.9850E-06    -2.90890E-09    -20.0513E-09    -27.3752E-09     999.863E-03     999.961E-03     999.961E-03     2.33651E-03    -2.11076E-03         1.00207    -333.396E-03     999.820E-03     159.529E-06     66.2800E-06     999.961E-03    -9.72877E-06    -67.0612E-06    -91.5558E-06
             411              0.              0.              0.              0.     855.360E-06    -32.0497E-06    -32.0497E-06     854.158E-06     99.9690E-06     99.9690E-06    -49.1554E-06    -49.8135E-06    -49.4845E-06    -49.4845E-06     99.9690E-06    -1.06808E-09    -19.9655E-09    -19.9655E-09     99.9690E-06     99.9690E-06    -49.1554E-06    -49.8135E-06    -49.4845E-06    -49.4845E-06     99.9690E-06    -1.06808E-09    -19.9655E-09    -19.9655E-09     999.703E-03     999.824E-03     999.824E-03     2.33590E-03    -2.06613E-03         1.00189    -333.364E-03     999.660E-03     134.903E-06     134.903E-06     999.824E-03    -3.57218E-06    -66.7744E-06    -66.7744E-06
             412              0.              0.              0.              0.     855.360E-06    -32.0497E-06     32.0497E-06     854.158E-06     99.9690E-06     99.9690E-06    -49.1554E-06    -49.8135E-06    -49.4845E-06    -49.4845E-06     99.9690E-06     1.06808E-09    -19.9655E-09     19.9655E-09     99.9690E-06     99.9690E-06    -49.1554E-06    -49.8135E-06    -49.4845E-06    -49.4845E-06     99.9690E-06     1.06808E-09    -19.9655E-09     19.9655E-09     999.703E-03     999.824E-03     999.824E-03     2.33590E-03    -2.06613E-03         1.00189    -333.364E-03     999.660E-03     134.903E-06     134.903E-06     999.824E-03     3.57218E-06    -66.7744E-06     66.7744E-06
             413              0.              0.              0.              0.     858.611E-06    -32.0791E-06     66.8257E-06     855.405E-06     99.9850E-06     99.9850E-06    -49.1600E-06    -49.8248E-06    -49.4854E-06    -49.4994E-06     99.9850E-06     2.90890E-09    -20.0513E-09     27.3752E-09     99.9850E-06     99.9850E-06    -49.1600E-06    -49.8248E-06    -49.4854E-06    -49.4994E-06     99.9850E-06     2.90890E-09    -20.0513E-09     27.3752E-09     999.863E-03     999.961E-03     999.961E-03     2.33651E-03    -2.11076E-03         1.00207    -333.396E-03     999.820E-03     159.529E-06     66.2800E-06     999.961E-03     9.72877E-06    -67.0612E-06     91.5558E-06
             414              0.              0.              0.              0.     863.515E-06    -32.5805E-06     131.351E-06     852.844E-06     99.9567E-06     99.9567E-06    -49.1430E-06    -49.8129E-06    -49.4858E-06    -49.4700E-06     99.9567E-06     3.68165E-09    -19.3031E-09     14.8193E-09     99.9567E-06     99.9567E-06    -49.1430E-06    -49.8129E-06    -49.4858E-06    -49.4700E-06     99.9567E-06     3.68165E-09    -19.3031E-09     14.8193E-09     999.577E-03         1.00000         1.00000     2.68161E-03    -1.79962E-03         1.00180    -333.629E-03     999.534E-03     388.067E-06     493.986E-06         1.00000     12.3132E-06    -64.5589E-06     49.5629E-06
             415              0.              0.              0.              0.     765.872E-06    -16.1901E-06    -115.376E-06     756.959E-06     100.032E-06     100.032E-06    -49.1389E-06    -49.8929E-06    -49.4818E-06    -49.5500E-06     100.032E-06    -5.17109E-09    -14.2720E-09    -65.2705E-09     100.032E-06     100.032E-06    -49.1389E-06    -49.8929E-06    -49.4818E-06    -49.5500E-06     100.032E-06    -5.17109E-09    -14.2720E-09    -65.2705E-09         1.00034         1.00015         1.00015     2.34936E-03    -2.69387E-03         1.00284    -333.267E-03         1.00028     55.8605E-06    -400.223E-06         1.00015    -17.2946E-06    -47.7325E-06    -218.296E-06
             416              0.              0.              0.              0.     758.760E-06    -16.6886E-06    -82.3059E-06     754.098E-06     99.9696E-06     99.9696E-06    -49.1065E-06    -49.8630E-06    -49.4797E-06    -49.4898E-06     99.9696E-06    -7.37007E-09    -14.7229E-09    -50.6428E-09     99.9696E-06     99.9696E-06    -49.1065E-06    -49.8630E-06    -49.4797E-06    -49.4898E-06     99.9696E-06    -7.37007E-09    -14.7229E-09    -50.6428E-09     999.713E-03     999.843E-03     999.843E-03     2.67883E-03    -2.38132E-03         1.00222    -333.380E-03     999.657E-03     182.420E-06     115.194E-06     999.843E-03    -24.6491E-06    -49.2403E-06    -169.374E-06
             417              0.              0.              0.              0.     755.937E-06    -16.7320E-06    -16.7320E-06     755.567E-06     99.9501E-06     99.9501E-06    -49.0984E-06    -49.8520E-06    -49.4752E-06    -49.4752E-06     99.9501E-06    -4.78452E-09    -18.0075E-09    -18.0075E-09     99.9501E-06     99.9501E-06    -49.0984E-06    -49.8520E-06    -49.4752E-06    -49.4752E-06     99.9501E-06    -4.78452E-09    -18.0075E-09    -18.0075E-09     999.519E-03     999.564E-03     999.564E-03     2.58474E-03    -2.45619E-03         1.00202    -333.231E-03     999.462E-03     64.2922E-06     64.2922E-06     999.564E-03    -16.0017E-06    -60.2259E-06    -60.2259E-06
             418              0.              0.              0.              0.     755.937E-06    -16.7320E-06     16.7320E-06     755.567E-06     99.9501E-06     99.9501E-06    -49.0984E-06    -49.8520E-06    -49.4752E-06    -49.4752E-06     99.9501E-06     4.78452E-09    -18.0075E-09     18.0075E-09     99.9501E-06     99.9501E-06    -49.0984E-06    -49.8520E-06    -49.4752E-06    -49.4752E-06     99.9501E-06     4.78452E-09    -18.0075E-09     18.0075E-09     999.519E-03     999.564E-03     999.564E-03     2.58474E-03    -2.45619E-03         1.00202    -333.231E-03     999.462E-03     64.2922E-06     64.2922E-06     999.564E-03     16.0017E-06    -60.2259E-06     60.2259E-06
             419              0.              0.              0.              0.     758.760E-06    -16.6886E-06     82.3059E-06     754.098E-06     99.9696E-06     99.9696E-06    -49.1065E-06    -49.8630E-06    -49.4797E-06    -49.4898E-06     99.9696E-06     7.37007E-09    -14.7229E-09     50.6428E-09     99.9696E-06     99.9696E-06    -49.1065E-06    -49.8630E-06    -49.4797E-06    -49.4898E-06     99.9696E-06     7.37007E-09    -14.7229E-09     50.6428E-09     999.713E-03     999.843E-03     999.843E-03     2.67883E-03    -2.38132E-03         1.00222    -333.380E-03     999.657E-03     182.420E-06     115.194E-06     999.843E-03     24.6491E-06    -49.2403E-06     169.374E-06
             420              0.              0.              0.              0.     765.872E-06    -16.1901E-06     115.376E-06     756.959E-06     100.032E-06     100.032E-06    -49.1389E-06    -49.8929E-06    -49.4818E-06    -49.5500E-06     100.032E-06     5.17109E-09    -14.2720E-09     65.2705E-09     100.032E-06     100.032E-06    -49.1389E-06    -49.8929E-06    -49.4818E-06    -49.5500E-06     100.032E-06     5.17109E-09    -14.2720E-09     65.2705E-09         1.00034         1.00015         1.00015     2.34936E-03    -2.69387E-03         1.00284    -333.267E-03         1.00028     55.8605E-06    -400.223E-06         1.00015     17.2946E-06    -47.7325E-06     218.296E-06
             421              0.              0.              0.              0.     666.557E-06    -34.0714E-06    -132.845E-06     652.296E-06     99.9984E-06     99.9984E-06    -49.0645E-06    -49.9331E-06    -49.4868E-06    -49.5107E-06     99.9983E-06    -24.5282E-09    -41.6259E-09    -13.6221E-09     99.9984E-06     99.9984E-06    -49.0645E-06    -49.9331E-06    -49.4868E-06    -49.5107E-06     99.9983E-06    -24.5282E-09    -41.6259E-09    -13.6221E-09         1.00000         1.00024         1.00024     3.16287E-03    -2.64726E-03         1.00289    -333.585E-03     999.936E-03     338.033E-06     177.913E-06         1.00024    -82.0340E-06    -139.217E-06    -45.5587E-06
             422              0.              0.              0.              0.     659.762E-06    -33.6069E-06    -65.3102E-06     655.661E-06     100.004E-06     100.004E-06    -49.0574E-06    -49.9468E-06    -49.4777E-06    -49.5265E-06     100.004E-06    -32.4024E-09    -54.3377E-09    -86.3839E-09     100.004E-06     100.004E-06    -49.0574E-06    -49.9468E-06    -49.4777E-06    -49.5265E-06     100.004E-06    -32.4024E-09    -54.3377E-09    -86.3839E-09         1.00006     999.801E-03     999.801E-03     2.73724E-03    -3.21202E-03         1.00301    -333.109E-03     999.990E-03    -74.1329E-06    -400.088E-06     999.800E-03    -108.369E-06    -181.732E-06    -288.909E-06
             423              0.              0.              0.              0.     655.809E-06    -33.5209E-06    -33.5209E-06     654.093E-06     99.9157E-06     99.9157E-06    -49.0136E-06    -49.9036E-06    -49.4586E-06    -49.4586E-06     99.9156E-06    -20.1383E-09    -79.5729E-09    -79.5729E-09     99.9157E-06     99.9157E-06    -49.0136E-06    -49.9036E-06    -49.4586E-06    -49.4586E-06     99.9156E-06    -20.1383E-09    -79.5729E-09    -79.5729E-09     999.185E-03     998.921E-03     998.921E-03     2.73805E-03    -3.21540E-03         1.00214    -332.814E-03     999.108E-03    -238.408E-06    -238.408E-06     998.920E-03    -67.3523E-06    -266.130E-06    -266.130E-06
             424              0.              0.              0.              0.     655.809E-06    -33.5209E-06     33.5209E-06     654.093E-06     99.9157E-06     99.9157E-06    -49.0136E-06    -49.9036E-06    -49.4586E-06    -49.4586E-06     99.9156E-06     20.1383E-09    -79.5729E-09     79.5729E-09     99.9157E-06     99.9157E-06    -49.0136E-06    -49.9036E-06    -49.4586E-06    -49.4586E-06     99.9156E-06     20.1383E-09    -79.5729E-09     79.5729E-09     999.185E-03     998.921E-03     998.921E-03     2.73805E-03    -3.21540E-03         1.00214    -332.814E-03     999.108E-03    -238.408E-06    -238.408E-06     998.920E-03     67.3523E-06    -266.130E-06     266.130E-06
             425              0.              0.              0.              0.     659.762E-06    -33.6069E-06     65.3102E-06     655.661E-06     100.004E-06     100.004E-06    -49.0574E-06    -49.9468E-06    -49.4777E-06    -49.5265E-06     100.004E-06     32.4024E-09    -54.3377E-09     86.3839E-09     100.004E-06     100.004E-06    -49.0574E-06    -49.9468E-06    -49.4777E-06    -49.5265E-06     100.004E-06     32.4024E-09    -54.3377E-09     86.3839E-09         1.00006     999.801E-03     999.801E-03     2.73724E-03    -3.21202E-03         1.00301    -333.109E-03     999.990E-03    -74.1329E-06    -400.088E-06     999.800E-03     108.369E-06    -181.732E-06     288.909E-06
             426              0.              0.              0.              0.     666.557E-06    -34.0714E-06     132.845E-06     652.296E-06     99.9984E-06     99.9984E-06    -49.0645E-06    -49.9331E-06    -49.4868E-06    -49.5107E-06     99.9983E-06     24.5282E-09    -41.6259E-09     13.6221E-09     99.9984E-06     99.9984E-06    -49.0645E-06    -49.9331E-06    -49.4868E-06    -49.5107E-06     99.9983E-06     24.5282E-09    -41.6259E-09     13.6221E-09         1.00000         1.00024         1.00024     3.16287E-03    -2.64726E-03         1.00289    -333.585E-03     999.936E-03     338.033E-06     177.913E-06         1.00024     82.0340E-06    -139.217E-06     45.5587E-06
             427              0.              0.              0.              0.     569.165E-06    -14.5059E-06    -113.845E-06     557.474E-06     100.146E-06     100.146E-06    -49.0608E-06    -50.0867E-06    -49.6408E-06    -49.5065E-06     100.146E-06    -41.8533E-09     118.962E-09     9.51617E-09     100.146E-06     100.146E-06    -49.0608E-06    -50.0867E-06    -49.6408E-06    -49.5065E-06     100.146E-06    -41.8533E-09     118.962E-09     9.51617E-09         1.00150         1.00049         1.00049     2.45293E-03    -4.40970E-03         1.00490    -332.845E-03         1.00142    -1.42705E-03    -528.216E-06         1.00049    -139.978E-06     397.866E-06     31.8267E-06
             428              0.              0.              0.              0.     560.387E-06    -14.9225E-06    -83.9367E-06     553.864E-06     100.121E-06     100.121E-06    -49.0241E-06    -50.0994E-06    -49.6321E-06    -49.4908E-06     100.120E-06    -37.4112E-09     124.299E-09     145.583E-09     100.121E-06     100.121E-06    -49.0241E-06    -50.0994E-06    -49.6321E-06    -49.4908E-06     100.120E-06    -37.4112E-09     124.299E-09     145.583E-09         1.00125     999.837E-03     999.837E-03     2.21402E-03    -4.97919E-03         1.00482    -332.357E-03         1.00115    -1.85293E-03    -907.992E-06     999.833E-03    -125.121E-06     415.717E-06     486.899E-06
             429              0.              0.              0.              0.     556.520E-06    -14.9512E-06    -14.9512E-06     556.118E-06     100.224E-06     100.224E-06    -49.0614E-06    -50.1694E-06    -49.6150E-06    -49.6150E-06     100.223E-06    -16.4845E-09     140.825E-09     140.825E-09     100.224E-06     100.224E-06    -49.0614E-06    -50.1694E-06    -49.6150E-06    -49.6150E-06     100.223E-06    -16.4845E-09     140.825E-09     140.825E-09         1.00231     999.320E-03     999.320E-03     753.677E-06    -6.65769E-03         1.00598    -331.139E-03         1.00219    -2.94959E-03    -2.94959E-03     999.315E-03    -55.1322E-06     470.986E-06     470.986E-06
             430              0.              0.              0.              0.     556.520E-06    -14.9512E-06     14.9512E-06     556.118E-06     100.224E-06     100.224E-06    -49.0614E-06    -50.1694E-06    -49.6150E-06    -49.6150E-06     100.223E-06     16.4845E-09     140.825E-09    -140.825E-09     100.224E-06     100.224E-06    -49.0614E-06    -50.1694E-06    -49.6150E-06    -49.6150E-06     100.223E-06     16.4845E-09     140.825E-09    -140.825E-09         1.00231     999.320E-03     999.320E-03     753.677E-06    -6.65769E-03         1.00598    -331.139E-03         1.00219    -2.94959E-03    -2.94959E-03     999.315E-03     55.1322E-06     470.986E-06    -470.986E-06
             431              0.              0.              0.              0.     560.387E-06    -14.9225E-06     83.9367E-06     553.864E-06     100.121E-06     100.121E-06    -49.0241E-06    -50.0994E-06    -49.6321E-06    -49.4908E-06     100.120E-06     37.4112E-09     124.299E-09    -145.583E-09     100.121E-06     100.121E-06    -49.0241E-06    -50.0994E-06    -49.6321E-06    -49.4908E-06     100.120E-06     37.4112E-09     124.299E-09    -145.583E-09         1.00125     999.837E-03     999.837E-03     2.21402E-03    -4.97919E-03         1.00482    -332.357E-03         1.00115    -1.85293E-03    -907.992E-06     999.833E-03     125.121E-06     415.717E-06    -486.899E-06
             432              0.              0.              0.              0.     569.165E-06    -14.5059E-06     113.845E-06     557.474E-06     100.146E-06     100.146E-06    -49.0608E-06    -50.0867E-06    -49.6408E-06    -49.5065E-06     100.146E-06     41.8533E-09     118.962E-09    -9.51617E-09     100.146E-06     100.146E-06    -49.0608E-06    -50.0867E-06    -49.6408E-06    -49.5065E-06     100.146E-06     41.8533E-09     118.962E-09    -9.51617E-09         1.00150         1.00049         1.00049     2.45293E-03    -4.40970E-03         1.00490    -332.845E-03         1.00142    -1.42705E-03    -528.216E-06         1.00049     139.978E-06     397.866E-06    -31.8267E-06
             433              0.              0.              0.              0.     472.325E-06    -36.3284E-06    -134.804E-06     451.220E-06     100.538E-06     100.538E-06    -48.9772E-06    -50.5701E-06    -50.1641E-06    -49.3785E-06     100.533E-06     21.9945E-09     728.485E-09     820.582E-09     100.538E-06     100.538E-06    -48.9772E-06    -50.5701E-06    -50.1641E-06    -49.3785E-06     100.533E-06     21.9945E-09     728.485E-09     820.582E-09         1.00548         1.00059         1.00059     484.099E-06    -10.1705E-03         1.01076    -330.300E-03         1.00533    -7.45480E-03    -2.19969E-03         1.00056     73.5604E-06     2.43640E-03     2.74442E-03
             434              0.              0.              0.              0.     461.737E-06    -36.0574E-06    -64.1606E-06     455.834E-06     100.804E-06     100.804E-06    -49.2472E-06    -50.5687E-06    -50.1548E-06    -49.6562E-06     100.799E-06     2.09524E-09     701.893E-09     1.07265E-06     100.804E-06     100.804E-06    -49.2472E-06    -50.5687E-06    -50.1548E-06    -49.6562E-06     100.799E-06     2.09524E-09     701.893E-09     1.07265E-06         1.00815         1.00132         1.00132    -2.36623E-03    -11.2059E-03         1.01252    -329.249E-03         1.00802    -8.43728E-03    -5.10235E-03         1.00129     7.00749E-06     2.34747E-03     3.58747E-03
             435              0.              0.              0.              0.     455.959E-06    -36.0869E-06    -36.0869E-06     453.094E-06     101.274E-06     101.274E-06    -49.6229E-06    -50.6625E-06    -50.1411E-06    -50.1411E-06     101.271E-06    -8.90203E-09     662.361E-09     662.361E-09     101.274E-06     101.274E-06    -49.6229E-06    -50.6625E-06    -50.1411E-06    -50.1411E-06     101.271E-06    -8.90203E-09     662.361E-09     662.361E-09         1.01286         1.00471         1.00471    -4.63785E-03    -11.5914E-03         1.01630    -329.492E-03         1.01275    -8.10390E-03    -8.10390E-03         1.00468    -29.7727E-06     2.21525E-03     2.21525E-03
             436              0.              0.              0.              0.     455.959E-06    -36.0869E-06     36.0869E-06     453.094E-06     101.274E-06     101.274E-06    -49.6229E-06    -50.6625E-06    -50.1411E-06    -50.1411E-06     101.271E-06     8.90203E-09     662.361E-09    -662.361E-09     101.274E-06     101.274E-06    -49.6229E-06    -50.6625E-06    -50.1411E-06    -50.1411E-06     101.271E-06     8.90203E-09     662.361E-09    -662.361E-09         1.01286         1.00471         1.00471    -4.63785E-03    -11.5914E-03         1.01630    -329.492E-03         1.01275    -8.10390E-03    -8.10390E-03         1.00468     29.7727E-06     2.21525E-03    -2.21525E-03
             437              0.              0.              0.              0.     461.737E-06    -36.0574E-06     64.1606E-06     455.834E-06     100.804E-06     100.804E-06    -49.2472E-06    -50.5687E-06    -50.1548E-06    -49.6562E-06     100.799E-06    -2.09524E-09     701.893E-09    -1.07265E-06     100.804E-06     100.804E-06    -49.2472E-06    -50.5687E-06    -50.1548E-06    -49.6562E-06     100.799E-06    -2.09524E-09     701.893E-09    -1.07265E-06         1.00815         1.00132         1.00132    -2.36623E-03    -11.2059E-03         1.01252    -329.249E-03         1.00802    -8.43728E-03    -5.10235E-03         1.00129    -7.00749E-06     2.34747E-03    -3.58747E-03
             438              0.              0.              0.              0.     472.325E-06    -36.3284E-06     134.804E-06     451.220E-06     100.538E-06     100.538E-06    -48.9772E-06    -50.5701E-06    -50.1641E-06    -49.3785E-06     100.533E-06    -21.9945E-09     728.485E-09    -820.582E-09     100.538E-06     100.538E-06    -48.9772E-06    -50.5701E-06    -50.1641E-06    -49.3785E-06     100.533E-06    -21.9945E-09     728.485E-09    -820.582E-09         1.00548         1.00059         1.00059     484.099E-06    -10.1705E-03         1.01076    -330.300E-03         1.00533    -7.45480E-03    -2.19969E-03         1.00056    -73.5604E-06     2.43640E-03    -2.74442E-03
             439              0.              0.              0.              0.     374.254E-06    -13.7851E-06    -114.615E-06     356.005E-06     100.820E-06     100.820E-06    -48.6758E-06    -51.1762E-06    -51.1507E-06    -48.6718E-06     100.791E-06     221.244E-09     1.54685E-06     3.20852E-06     100.820E-06     100.820E-06    -48.6758E-06    -51.1762E-06    -51.1507E-06    -48.6718E-06     100.791E-06     221.244E-09     1.54685E-06     3.20852E-06         1.00846     994.939E-03     994.939E-03    -5.03398E-03    -21.7587E-03         1.01670    -322.715E-03         1.00809    -21.5884E-03    -5.00735E-03     994.742E-03     739.947E-06     5.17342E-03     10.7308E-03
             440              0.              0.              0.              0.     363.100E-06    -13.7778E-06    -88.1785E-06     351.961E-06     102.121E-06     102.121E-06    -49.5724E-06    -51.5689E-06    -51.2362E-06    -49.8689E-06     102.085E-06     323.396E-09     1.64959E-06     3.51359E-06     102.121E-06     102.121E-06    -49.5724E-06    -51.5689E-06    -51.2362E-06    -49.8689E-06     102.085E-06     323.396E-09     1.64959E-06     3.51359E-06         1.02143         1.00751         1.00751    -7.15914E-03    -20.5138E-03         1.02803    -326.613E-03         1.02118    -18.2881E-03    -9.14282E-03         1.00727     1.08159E-03     5.51703E-03     11.7511E-03
             441              0.              0.              0.              0.     353.332E-06    -13.5318E-06    -13.5318E-06     352.813E-06     103.875E-06     103.875E-06    -50.8062E-06    -52.0805E-06    -51.4280E-06    -51.4280E-06     103.844E-06     212.774E-09     1.90933E-06     1.90933E-06     103.875E-06     103.875E-06    -50.8062E-06    -52.0805E-06    -51.4280E-06    -51.4280E-06     103.844E-06     212.774E-09     1.90933E-06     1.90933E-06         1.03896         1.02207         1.02207    -12.5852E-03    -21.1093E-03         1.04318    -329.459E-03         1.03883    -16.7446E-03    -16.7446E-03         1.02187     711.618E-06     6.38572E-03     6.38572E-03
             442              0.              0.              0.              0.     353.332E-06    -13.5318E-06     13.5318E-06     352.813E-06     103.875E-06     103.875E-06    -50.8062E-06    -52.0805E-06    -51.4280E-06    -51.4280E-06     103.844E-06    -212.774E-09     1.90933E-06    -1.90933E-06     103.875E-06     103.875E-06    -50.8062E-06    -52.0805E-06    -51.4280E-06    -51.4280E-06     103.844E-06    -212.774E-09     1.90933E-06    -1.90933E-06         1.03896         1.02207         1.02207    -12.5852E-03    -21.1093E-03         1.04318    -329.459E-03         1.03883    -16.7446E-03    -16.7446E-03         1.02187    -711.618E-06     6.38572E-03    -6.38572E-03
             443              0.              0.              0.              0.     363.100E-06    -13.7778E-06     88.1785E-06     351.961E-06     102.121E-06     102.121E-06    -49.5724E-06    -51.5689E-06    -51.2362E-06    -49.8689E-06     102.085E-06    -323.396E-09     1.64959E-06    -3.51359E-06     102.121E-06     102.121E-06    -49.5724E-06    -51.5689E-06    -51.2362E-06    -49.8689E-06     102.085E-06    -323.396E-09     1.64959E-06    -3.51359E-06         1.02143         1.00751         1.00751    -7.15914E-03    -20.5138E-03         1.02803    -326.613E-03         1.02118    -18.2881E-03    -9.14282E-03         1.00727    -1.08159E-03     5.51703E-03    -11.7511E-03
             444              0.              0.              0.              0.     374.254E-06    -13.7851E-06     114.615E-06     356.005E-06     100.820E-06     100.820E-06    -48.6758E-06    -51.1762E-06    -51.1507E-06    -48.6718E-06     100.791E-06    -221.244E-09     1.54685E-06    -3.20852E-06     100.820E-06     100.820E-06    -48.6758E-06    -51.1762E-06    -51.1507E-06    -48.6718E-06     100.791E-06    -221.244E-09     1.54685E-06    -3.20852E-06         1.00846     994.939E-03     994.939E-03    -5.03398E-03    -21.7587E-03         1.01670    -322.715E-03         1.00809    -21.5884E-03    -5.00735E-03     994.742E-03    -739.947E-06     5.17342E-03    -10.7308E-03
             445              0.              0.              0.              0.     290.716E-06    -39.1435E-06    -138.995E-06     252.317E-06     100.632E-06     100.632E-06    -46.5590E-06    -53.1178E-06    -52.8213E-06    -46.6988E-06     100.475E-06     1.30704E-06     4.86532E-06     5.08595E-06     100.632E-06     100.632E-06    -46.5590E-06    -53.1178E-06    -52.8213E-06    -46.6988E-06     100.475E-06     1.30704E-06     4.86532E-06     5.08595E-06         1.00749     989.374E-03     989.374E-03     4.81829E-03    -39.0532E-03         1.02843    -318.380E-03         1.00448    -37.0695E-03     3.88350E-03     988.325E-03     4.37138E-03     16.2720E-03     17.0099E-03
             446              0.              0.              0.              0.     262.471E-06    -39.0773E-06    -67.8810E-06     250.512E-06     103.684E-06     103.684E-06    -48.8538E-06    -53.8469E-06    -53.2377E-06    -49.1637E-06     103.385E-06     1.57521E-06     5.27796E-06     8.71885E-06     103.684E-06     103.684E-06    -48.8538E-06    -53.8469E-06    -53.2377E-06    -49.1637E-06     103.385E-06     1.57521E-06     5.27796E-06     8.71885E-06         1.03763         1.01929         1.01929    -1.03219E-03    -34.4308E-03         1.05372    -327.943E-03         1.03581    -30.3564E-03    -3.10494E-03         1.01729     5.26826E-03     17.6521E-03     29.1600E-03
             447              0.              0.              0.              0.     250.098E-06    -40.7261E-06    -40.7261E-06     243.376E-06     109.577E-06     109.577E-06    -52.9463E-06    -55.5888E-06    -54.1151E-06    -54.1151E-06     109.272E-06     921.688E-09     6.17587E-06     6.17587E-06     109.577E-06     109.577E-06    -52.9463E-06    -55.5888E-06    -54.1151E-06    -54.1151E-06     109.272E-06     921.688E-09     6.17587E-06     6.17587E-06         1.09611         1.07784         1.07784    -9.27247E-03    -26.9478E-03         1.10479    -347.206E-03         1.09563    -17.0902E-03    -17.0902E-03         1.07580     3.08257E-03     20.6551E-03     20.6551E-03
             448              0.              0.              0.              0.     250.098E-06    -40.7261E-06     40.7261E-06     243.376E-06     109.577E-06     109.577E-06    -52.9463E-06    -55.5888E-06    -54.1151E-06    -54.1151E-06     109.272E-06    -921.688E-09     6.17587E-06    -6.17587E-06     109.577E-06     109.577E-06    -52.9463E-06    -55.5888E-06    -54.1151E-06    -54.1151E-06     109.272E-06    -921.688E-09     6.17587E-06    -6.17587E-06         1.09611         1.07784         1.07784    -9.27247E-03    -26.9478E-03         1.10479    -347.206E-03         1.09563    -17.0902E-03    -17.0902E-03         1.07580    -3.08257E-03     20.6551E-03    -20.6551E-03
             449              0.              0.              0.              0.     262.471E-06    -39.0773E-06     67.8810E-06     250.512E-06     103.684E-06     103.684E-06    -48.8538E-06    -53.8469E-06    -53.2377E-06    -49.1637E-06     103.385E-06    -1.57521E-06     5.27796E-06    -8.71885E-06     103.684E-06     103.684E-06    -48.8538E-06    -53.8469E-06    -53.2377E-06    -49.1637E-06     103.385E-06    -1.57521E-06     5.27796E-06    -8.71885E-06         1.03763         1.01929         1.01929    -1.03219E-03    -34.4308E-03         1.05372    -327.943E-03         1.03581    -30.3564E-03    -3.10494E-03         1.01729    -5.26826E-03     17.6521E-03    -29.1600E-03
             450              0.              0.              0.              0.     290.716E-06    -39.1435E-06     138.995E-06     252.317E-06     100.632E-06     100.632E-06    -46.5590E-06    -53.1178E-06    -52.8213E-06    -46.6988E-06     100.475E-06    -1.30704E-06     4.86532E-06    -5.08595E-06     100.632E-06     100.632E-06    -46.5590E-06    -53.1178E-06    -52.8213E-06    -46.6988E-06     100.475E-06    -1.30704E-06     4.86532E-06    -5.08595E-06         1.00749     989.374E-03     989.374E-03     4.81829E-03    -39.0532E-03         1.02843    -318.380E-03         1.00448    -37.0695E-03     3.88350E-03     988.325E-03    -4.37138E-03     16.2720E-03    -17.0099E-03
             451              0.              0.              0.              0.     190.785E-06    -19.2448E-06    -116.841E-06     149.589E-06     97.2877E-06     97.2877E-06    -43.0449E-06    -53.3209E-06    -48.9710E-06    -46.9588E-06     96.8517E-06     2.78410E-06     152.985E-09     10.6363E-06     97.2877E-06     97.2877E-06    -43.0449E-06    -53.3209E-06    -48.9710E-06    -46.9588E-06     96.8517E-06     2.78410E-06     152.985E-09     10.6363E-06     975.024E-03     955.974E-03     955.974E-03     17.2940E-03    -51.4417E-03         1.00742    -307.275E-03     969.068E-03    -22.3454E-03    -8.88577E-03     953.057E-03     9.31138E-03     511.657E-06     35.5730E-03
             452              0.              0.              0.              0.     177.034E-06    -18.1593E-06    -98.4262E-06     146.026E-06     101.929E-06     101.929E-06    -45.4721E-06    -55.3711E-06    -49.7560E-06    -50.5530E-06     101.395E-06     3.23214E-06     499.603E-09     6.58349E-06     101.929E-06     101.929E-06    -45.4721E-06    -55.3711E-06    -49.7560E-06    -50.5530E-06     101.395E-06     3.23214E-06     499.603E-09     6.58349E-06         1.02116         1.04135         1.04135     55.3870E-03    -10.8274E-03         1.05218    -361.969E-03         1.01483     26.7320E-03     21.4010E-03         1.03777     10.8098E-03     1.67091E-03     22.0184E-03
             453              0.              0.              0.              0.     125.129E-06    -19.2565E-06    -19.2565E-06     122.130E-06     104.645E-06     104.645E-06    -47.7315E-06    -55.6182E-06    -51.4610E-06    -51.4610E-06     104.217E-06     1.84009E-06     1.26533E-06     1.26533E-06     104.645E-06     104.645E-06    -47.7315E-06    -55.6182E-06    -51.4610E-06    -51.4610E-06     104.217E-06     1.84009E-06     1.26533E-06     1.26533E-06         1.04765         1.12875         1.12875     109.513E-03     56.7590E-03         1.07199    -431.675E-03         1.04148     84.5666E-03     84.5666E-03         1.12589     6.15414E-03     4.23186E-03     4.23186E-03
             454              0.              0.              0.              0.     125.129E-06    -19.2565E-06     19.2565E-06     122.130E-06     104.645E-06     104.645E-06    -47.7315E-06    -55.6182E-06    -51.4610E-06    -51.4610E-06     104.217E-06    -1.84009E-06     1.26533E-06    -1.26533E-06     104.645E-06     104.645E-06    -47.7315E-06    -55.6182E-06    -51.4610E-06    -51.4610E-06     104.217E-06    -1.84009E-06     1.26533E-06    -1.26533E-06         1.04765         1.12875         1.12875     109.513E-03     56.7590E-03         1.07199    -431.675E-03         1.04148     84.5666E-03     84.5666E-03         1.12589    -6.15414E-03     4.23186E-03    -4.23186E-03
             455              0.              0.              0.              0.     177.034E-06    -18.1593E-06     98.4262E-06     146.026E-06     101.929E-06     101.929E-06    -45.4721E-06    -55.3711E-06    -49.7560E-06    -50.5530E-06     101.395E-06    -3.23214E-06     499.603E-09    -6.58349E-06     101.929E-06     101.929E-06    -45.4721E-06    -55.3711E-06    -49.7560E-06    -50.5530E-06     101.395E-06    -3.23214E-06     499.603E-09    -6.58349E-06         1.02116         1.04135         1.04135     55.3870E-03    -10.8274E-03         1.05218    -361.969E-03         1.01483     26.7320E-03     21.4010E-03         1.03777    -10.8098E-03     1.67091E-03    -22.0184E-03
             456              0.              0.              0.              0.     190.785E-06    -19.2448E-06     116.841E-06     149.589E-06     97.2877E-06     97.2877E-06    -43.0449E-06    -53.3209E-06    -48.9710E-06    -46.9588E-06     96.8517E-06    -2.78410E-06     152.985E-09    -10.6363E-06     97.2877E-06     97.2877E-06    -43.0449E-06    -53.3209E-06    -48.9710E-06    -46.9588E-06     96.8517E-06    -2.78410E-06     152.985E-09    -10.6363E-06     975.024E-03     955.974E-03     955.974E-03     17.2940E-03    -51.4417E-03         1.00742    -307.275E-03     969.068E-03    -22.3454E-03    -8.88577E-03     953.057E-03    -9.31138E-03     511.657E-06    -35.5730E-03
             457              0.              0.              0.              0.     162.277E-06    -19.3686E-06    -135.832E-06     86.6511E-06     82.9940E-06     82.9940E-06    -29.9548E-06    -51.6822E-06    -30.2576E-06    -44.9517E-06     76.5663E-06     2.39118E-06    -12.7751E-06    -25.8901E-06     82.9940E-06     82.9940E-06    -29.9548E-06    -51.6822E-06    -30.2576E-06    -44.9517E-06     76.5663E-06     2.39118E-06    -12.7751E-06    -25.8901E-06     841.997E-03         1.00446         1.00446     248.952E-03     103.617E-03     900.845E-03    -452.344E-03     797.875E-03     246.926E-03     148.638E-03     961.467E-03     7.99727E-03    -42.7262E-03    -86.5891E-03
             458              0.              0.              0.              0.     67.0737E-06    -17.1167E-06    -55.0860E-06     34.2262E-06     78.9183E-06     78.9183E-06    -30.6571E-06    -46.6855E-06    -30.9660E-06    -40.6714E-06     73.2132E-06     3.00052E-06    -12.9596E-06    -26.3690E-06     78.9183E-06     78.9183E-06    -30.6571E-06    -46.6855E-06    -30.9660E-06    -40.6714E-06     73.2132E-06     3.00052E-06    -12.9596E-06    -26.3690E-06     794.854E-03         1.04964         1.04964     316.691E-03     209.478E-03     840.159E-03    -525.269E-03     768.577E-03     314.625E-03     249.706E-03         1.01148     10.0352E-03    -43.3431E-03    -88.1907E-03
             459              0.              0.              0.              0.     50.7510E-06    -19.9896E-06    -19.9896E-06     42.1485E-06     70.3430E-06     70.3430E-06    -30.0609E-06    -38.4797E-06    -32.5768E-06    -32.5768E-06     66.9560E-06     1.80493E-06    -13.4240E-06    -13.4240E-06     70.3430E-06     70.3430E-06    -30.0609E-06    -38.4797E-06    -32.5768E-06    -32.5768E-06     66.9560E-06     1.80493E-06    -13.4240E-06    -13.4240E-06     702.193E-03         1.06730         1.06730     395.697E-03     339.385E-03     727.911E-03    -600.792E-03     694.801E-03     378.869E-03     378.869E-03         1.04464     6.03655E-03    -44.8962E-03    -44.8962E-03
             460              0.              0.              0.              0.     50.7510E-06    -19.9896E-06     19.9896E-06     42.1485E-06     70.3430E-06     70.3430E-06    -30.0609E-06    -38.4797E-06    -32.5768E-06    -32.5768E-06     66.9560E-06    -1.80493E-06    -13.4240E-06     13.4240E-06     70.3430E-06     70.3430E-06    -30.0609E-06    -38.4797E-06    -32.5768E-06    -32.5768E-06     66.9560E-06    -1.80493E-06    -13.4240E-06     13.4240E-06     702.193E-03         1.06730         1.06730     395.697E-03     339.385E-03     727.911E-03    -600.792E-03     694.801E-03     378.869E-03     378.869E-03         1.04464    -6.03655E-03    -44.8962E-03     44.8962E-03
             461              0.              0.              0.              0.     67.0737E-06    -17.1167E-06     55.0860E-06     34.2262E-06     78.9183E-06     78.9183E-06    -30.6571E-06    -46.6855E-06    -30.9660E-06    -40.6714E-06     73.2132E-06    -3.00052E-06    -12.9596E-06     26.3690E-06     78.9183E-06     78.9183E-06    -30.6571E-06    -46.6855E-06    -30.9660E-06    -40.6714E-06     73.2132E-06    -3.00052E-06    -12.9596E-06     26.3690E-06     794.854E-03         1.04964         1.04964     316.691E-03     209.478E-03     840.159E-03    -525.269E-03     768.577E-03     314.625E-03     249.706E-03         1.01148    -10.0352E-03    -43.3431E-03     88.1907E-03
             462              0.              0.              0.              0.     162.277E-06    -19.3686E-06     135.832E-06     86.6511E-06     82.9940E-06     82.9940E-06    -29.9548E-06    -51.6822E-06    -30.2576E-06    -44.9517E-06     76.5663E-06    -2.39118E-06    -12.7751E-06     25.8901E-06     82.9940E-06     82.9940E-06    -29.9548E-06    -51.6822E-06    -30.2576E-06    -44.9517E-06     76.5663E-06    -2.39118E-06    -12.7751E-06     25.8901E-06     841.997E-03         1.00446         1.00446     248.952E-03     103.617E-03     900.845E-03    -452.344E-03     797.875E-03     246.926E-03     148.638E-03     961.467E-03    -7.99727E-03    -42.7262E-03     86.5891E-03
             463     649.911E-03     23.0482E-03     281.279E-03    -585.435E-03              0.    -23.0482E-39    -281.279E-39     585.435E-39     71.0558E-06     71.0558E-06    -18.0636E-06    -51.1468E-06    -16.4500E-06    -40.5131E-06     58.8085E-06     1.46041E-06    -18.0802E-06    -67.5963E-06     71.0558E-06     71.0558E-06    -18.0636E-06    -51.1468E-06    -16.4500E-06    -40.5131E-06     58.8085E-06     1.46041E-06    -18.0802E-06    -67.5963E-06     732.286E-03         1.08631         1.08631     490.197E-03     268.905E-03     817.409E-03    -615.139E-03     650.419E-03     500.991E-03     340.033E-03         1.00439     4.88431E-03    -60.4688E-03    -226.075E-03
             464     910.686E-03     50.2461E-03     291.926E-03    -861.164E-03              0.    -50.2461E-39    -291.926E-39     861.164E-39     58.5110E-06     58.5110E-06    -18.4162E-06    -38.1270E-06    -16.9432E-06    -28.7235E-06     47.6344E-06     2.06279E-06    -18.6218E-06    -53.7546E-06     58.5110E-06     58.5110E-06    -18.4162E-06    -38.1270E-06    -16.9432E-06    -28.7235E-06     47.6344E-06     2.06279E-06    -18.6218E-06    -53.7546E-06     593.990E-03         1.04291         1.04291     528.344E-03     396.499E-03     646.408E-03    -655.917E-03     550.816E-03     538.197E-03     459.399E-03     970.154E-03     6.89896E-03    -62.2803E-03    -179.781E-03
             465     825.650E-03     60.7500E-03     60.7500E-03    -821.168E-03              0.    -60.7500E-39    -60.7500E-39     821.168E-39     44.7861E-06     44.7861E-06    -19.0201E-06    -23.6571E-06    -18.1026E-06    -18.1026E-06     38.3141E-06     1.33258E-06    -19.9564E-06    -19.9564E-06     44.7861E-06     44.7861E-06    -19.0201E-06    -23.6571E-06    -18.1026E-06    -18.1026E-06     38.3141E-06     1.33258E-06    -19.9564E-06    -19.9564E-06     443.374E-03     997.830E-03     997.830E-03     571.033E-03     540.016E-03     457.815E-03    -702.960E-03     440.154E-03     577.170E-03     577.170E-03     954.539E-03     4.45681E-03    -66.7440E-03    -66.7440E-03
             466     825.650E-03     60.7500E-03    -60.7500E-03    -821.168E-03              0.    -60.7500E-39     60.7500E-39     821.168E-39     44.7861E-06     44.7861E-06    -19.0201E-06    -23.6571E-06    -18.1026E-06    -18.1026E-06     38.3141E-06    -1.33258E-06    -19.9564E-06     19.9564E-06     44.7861E-06     44.7861E-06    -19.0201E-06    -23.6571E-06    -18.1026E-06    -18.1026E-06     38.3141E-06    -1.33258E-06    -19.9564E-06     19.9564E-06     443.374E-03     997.830E-03     997.830E-03     571.033E-03     540.016E-03     457.815E-03    -702.960E-03     440.154E-03     577.170E-03     577.170E-03     954.539E-03    -4.45681E-03    -66.7440E-03     66.7440E-03
             467     910.686E-03     50.2461E-03    -291.926E-03    -861.164E-03              0.    -50.2461E-39     291.926E-39     861.164E-39     58.5110E-06     58.5110E-06    -18.4162E-06    -38.1270E-06    -16.9432E-06    -28.7235E-06     47.6344E-06    -2.06279E-06    -18.6218E-06     53.7546E-06     58.5110E-06     58.5110E-06    -18.4162E-06    -38.1270E-06    -16.9432E-06    -28.7235E-06     47.6344E-06    -2.06279E-06    -18.6218E-06     53.7546E-06     593.990E-03         1.04291         1.04291     528.344E-03     396.499E-03     646.408E-03    -655.917E-03     550.816E-03     538.197E-03     459.399E-03     970.154E-03    -6.89896E-03    -62.2803E-03     179.781E-03
             468     649.911E-03     23.0482E-03    -281.279E-03    -585.435E-03              0.    -23.0482E-39     281.279E-39     585.435E-39     71.0558E-06     71.0558E-06    -18.0636E-06    -51.1468E-06    -16.4500E-06    -40.5131E-06     58.8085E-06    -1.46041E-06    -18.0802E-06     67.5963E-06     71.0558E-06     71.0558E-06    -18.0636E-06    -51.1468E-06    -16.4500E-06    -40.5131E-06     58.8085E-06    -1.46041E-06    -18.0802E-06     67.5963E-06     732.286E-03         1.08631         1.08631     490.197E-03     268.905E-03     817.409E-03    -615.139E-03     650.419E-03     500.991E-03     340.033E-03         1.00439    -4.88431E-03    -60.4688E-03     226.075E-03
             469              0.              0.              0.              0.     2.45823E-03     28.1020E-06    -126.836E-06     2.45480E-03     99.9862E-06     99.9862E-06    -49.4853E-06    -49.5006E-06    -49.5004E-06    -49.4854E-06     99.9862E-06    -272.960E-12    -1.17538E-09     442.653E-12     99.9862E-06     99.9862E-06    -49.4853E-06    -49.5006E-06    -49.5004E-06    -49.4854E-06     99.9862E-06    -272.960E-12    -1.17538E-09     442.653E-12     999.860E-03         1.00000         1.00000     193.964E-06     91.1940E-06     999.912E-03    -333.429E-03     999.860E-03     92.3344E-06     192.825E-06         1.00000    -912.910E-09    -3.93105E-06     1.48045E-06
             470              0.              0.              0.              0.     2.45594E-03     27.7713E-06    -71.2433E-06     2.45475E-03     100.000E-06     100.000E-06    -49.4925E-06    -49.5076E-06    -49.5003E-06    -49.4998E-06     100.000E-06     295.394E-12     279.548E-12    -88.2628E-12     100.000E-06     100.000E-06    -49.4925E-06    -49.5076E-06    -49.5003E-06    -49.4998E-06     100.000E-06     295.394E-12     279.548E-12    -88.2628E-12         1.00000         1.00000         1.00000     50.2445E-06    -50.6082E-06         1.00005    -333.334E-03         1.00000    -2.01477E-06     1.65165E-06         1.00000     987.940E-09     934.944E-09    -295.193E-09
             471              0.              0.              0.              0.     2.45509E-03     27.7194E-06    -27.7194E-06     2.45477E-03     100.000E-06     100.000E-06    -49.4928E-06    -49.5072E-06    -49.5000E-06    -49.5000E-06     100.000E-06     431.874E-12     309.589E-12    -309.589E-12     100.000E-06     100.000E-06    -49.4928E-06    -49.5072E-06    -49.5000E-06    -49.5000E-06     100.000E-06     431.874E-12     309.589E-12    -309.589E-12         1.00000     999.998E-03     999.998E-03     46.2176E-06    -49.8287E-06         1.00005    -333.332E-03         1.00000    -1.80549E-06    -1.80549E-06     999.998E-03     1.44440E-06     1.03542E-06    -1.03542E-06
             472              0.              0.              0.              0.     2.45509E-03     27.7194E-06     27.7194E-06     2.45477E-03     100.000E-06     100.000E-06    -49.4928E-06    -49.5072E-06    -49.5000E-06    -49.5000E-06     100.000E-06    -431.874E-12     309.589E-12     309.589E-12     100.000E-06     100.000E-06    -49.4928E-06    -49.5072E-06    -49.5000E-06    -49.5000E-06     100.000E-06    -431.874E-12     309.589E-12     309.589E-12         1.00000     999.998E-03     999.998E-03     46.2176E-06    -49.8287E-06         1.00005    -333.332E-03         1.00000    -1.80549E-06    -1.80549E-06     999.998E-03    -1.44440E-06     1.03542E-06     1.03542E-06
             473              0.              0.              0.              0.     2.45594E-03     27.7713E-06     71.2433E-06     2.45475E-03     100.000E-06     100.000E-06    -49.4925E-06    -49.5076E-06    -49.5003E-06    -49.4998E-06     100.000E-06    -295.394E-12     279.548E-12     88.2628E-12     100.000E-06     100.000E-06    -49.4925E-06    -49.5076E-06    -49.5003E-06    -49.4998E-06     100.000E-06    -295.394E-12     279.548E-12     88.2628E-12         1.00000         1.00000         1.00000     50.2445E-06    -50.6082E-06         1.00005    -333.334E-03         1.00000    -2.01477E-06     1.65165E-06         1.00000    -987.940E-09     934.944E-09     295.193E-09
             474              0.              0.              0.              0.     2.45823E-03     28.1020E-06     126.836E-06     2.45480E-03     99.9862E-06     99.9862E-06    -49.4853E-06    -49.5006E-06    -49.5004E-06    -49.4854E-06     99.9862E-06     272.960E-12    -1.17538E-09    -442.653E-12     99.9862E-06     99.9862E-06    -49.4853E-06    -49.5006E-06    -49.5004E-06    -49.4854E-06     99.9862E-06     272.960E-12    -1.17538E-09    -442.653E-12     999.860E-03         1.00000         1.00000     193.964E-06     91.1940E-06     999.912E-03    -333.429E-03     999.860E-03     92.3344E-06     192.825E-06         1.00000     912.910E-09    -3.93105E-06    -1.48045E-06
             475              0.              0.              0.              0.     2.35803E-03     21.4032E-06    -120.654E-06     2.35484E-03     100.014E-06     100.014E-06    -49.4918E-06    -49.5224E-06    -49.5001E-06    -49.5141E-06     100.014E-06     218.558E-12     1.62632E-09    -464.615E-12     100.014E-06     100.014E-06    -49.4918E-06    -49.5224E-06    -49.5001E-06    -49.5141E-06     100.014E-06     218.558E-12     1.62632E-09    -464.615E-12         1.00014     999.995E-03     999.995E-03    -42.5241E-06    -247.237E-06         1.00024    -333.235E-03         1.00014    -98.0719E-06    -191.687E-06     999.995E-03     730.964E-09     5.43918E-06    -1.55390E-06
             476              0.              0.              0.              0.     2.35611E-03     21.7031E-06    -77.2662E-06     2.35475E-03     100.000E-06     100.000E-06    -49.4853E-06    -49.5148E-06    -49.5000E-06    -49.5001E-06     100.000E-06     151.673E-12     262.800E-12    -97.7209E-12     100.000E-06     100.000E-06    -49.4853E-06    -49.5148E-06    -49.5000E-06    -49.5001E-06     100.000E-06     151.673E-12     262.800E-12    -97.7209E-12         1.00000         1.00000         1.00000     98.0977E-06    -99.6729E-06         1.00010    -333.333E-03         1.00000    -498.291E-09    -1.07544E-06         1.00000     507.268E-09     878.928E-09    -326.825E-09
             477              0.              0.              0.              0.     2.35499E-03     21.7702E-06    -21.7702E-06     2.35479E-03     99.9999E-06     99.9999E-06    -49.4859E-06    -49.5140E-06    -49.4999E-06    -49.4999E-06     99.9999E-06     42.3940E-12    -134.587E-12     134.587E-12     99.9999E-06     99.9999E-06    -49.4859E-06    -49.5140E-06    -49.4999E-06    -49.4999E-06     99.9999E-06     42.3940E-12    -134.587E-12     134.587E-12     999.999E-03     999.998E-03     999.998E-03     93.2625E-06    -94.9606E-06         1.00009    -333.332E-03     999.999E-03    -848.937E-09    -848.937E-09     999.998E-03     141.786E-09    -450.123E-09     450.122E-09
             478              0.              0.              0.              0.     2.35499E-03     21.7702E-06     21.7702E-06     2.35479E-03     99.9999E-06     99.9999E-06    -49.4859E-06    -49.5140E-06    -49.4999E-06    -49.4999E-06     99.9999E-06    -42.3939E-12    -134.587E-12    -134.587E-12     99.9999E-06     99.9999E-06    -49.4859E-06    -49.5140E-06    -49.4999E-06    -49.4999E-06     99.9999E-06    -42.3939E-12    -134.587E-12    -134.587E-12     999.999E-03     999.998E-03     999.998E-03     93.2625E-06    -94.9606E-06         1.00009    -333.332E-03     999.999E-03    -848.937E-09    -848.937E-09     999.998E-03    -141.786E-09    -450.123E-09    -450.123E-09
             479              0.              0.              0.              0.     2.35611E-03     21.7031E-06     77.2662E-06     2.35475E-03     100.000E-06     100.000E-06    -49.4853E-06    -49.5148E-06    -49.5000E-06    -49.5001E-06     100.000E-06    -151.673E-12     262.800E-12     97.7209E-12     100.000E-06     100.000E-06    -49.4853E-06    -49.5148E-06    -49.5000E-06    -49.5001E-06     100.000E-06    -151.673E-12     262.800E-12     97.7209E-12         1.00000         1.00000         1.00000     98.0977E-06    -99.6729E-06         1.00010    -333.333E-03         1.00000    -498.291E-09    -1.07544E-06         1.00000    -507.268E-09     878.928E-09     326.825E-09
             480              0.              0.              0.              0.     2.35803E-03     21.4032E-06     120.654E-06     2.35484E-03     100.014E-06     100.014E-06    -49.4918E-06    -49.5224E-06    -49.5001E-06    -49.5141E-06     100.014E-06    -218.558E-12     1.62632E-09     464.615E-12     100.014E-06     100.014E-06    -49.4918E-06    -49.5224E-06    -49.5001E-06    -49.5141E-06     100.014E-06    -218.558E-12     1.62632E-09     464.615E-12         1.00014     999.995E-03     999.995E-03    -42.5241E-06    -247.237E-06         1.00024    -333.235E-03         1.00014    -98.0719E-06    -191.687E-06     999.995E-03    -730.965E-09     5.43918E-06     1.55390E-06
             481              0.              0.              0.              0.     2.25834E-03     28.1391E-06    -126.887E-06     2.25460E-03     99.9856E-06     99.9856E-06    -49.4626E-06    -49.5227E-06    -49.4997E-06    -49.4856E-06     99.9856E-06    -73.8715E-12    -854.151E-12    -111.290E-12     99.9856E-06     99.9856E-06    -49.4626E-06    -49.5227E-06    -49.4997E-06    -49.4856E-06     99.9856E-06    -73.8715E-12    -854.151E-12    -111.290E-12     999.854E-03    1000.000E-03    1000.000E-03     346.109E-06    -55.4895E-06         1.00006    -333.430E-03     999.854E-03     98.0449E-06     192.580E-06    1000.000E-03    -247.062E-09    -2.85669E-06    -372.205E-09
             482              0.              0.              0.              0.     2.25612E-03     27.8415E-06    -71.1933E-06     2.25482E-03     99.9997E-06     99.9997E-06    -49.4708E-06    -49.5289E-06    -49.4998E-06    -49.4999E-06     99.9997E-06    -206.378E-12    -230.858E-12    -102.868E-12     99.9997E-06     99.9997E-06    -49.4708E-06    -49.5289E-06    -49.4998E-06    -49.4999E-06     99.9997E-06    -206.378E-12    -230.858E-12    -102.868E-12     999.997E-03     999.997E-03     999.997E-03     194.454E-06    -194.553E-06         1.00019    -333.332E-03     999.997E-03     308.064E-09    -403.776E-09     999.997E-03    -690.228E-09    -772.100E-09    -344.039E-09
             483              0.              0.              0.              0.     2.25505E-03     27.7703E-06    -27.7703E-06     2.25471E-03    100.0000E-06    100.0000E-06    -49.4719E-06    -49.5280E-06    -49.5000E-06    -49.5000E-06    100.0000E-06    -169.442E-12     47.2228E-12    -47.2228E-12    100.0000E-06    100.0000E-06    -49.4719E-06    -49.5280E-06    -49.5000E-06    -49.5000E-06    100.0000E-06    -169.442E-12     47.2228E-12    -47.2228E-12    1000.000E-03         1.00000         1.00000     188.224E-06    -187.002E-06         1.00019    -333.334E-03     999.999E-03     611.330E-09     611.330E-09         1.00000    -566.697E-09     157.936E-09    -157.936E-09
             484              0.              0.              0.              0.     2.25505E-03     27.7703E-06     27.7703E-06     2.25471E-03    100.0000E-06    100.0000E-06    -49.4719E-06    -49.5280E-06    -49.5000E-06    -49.5000E-06    100.0000E-06     169.442E-12     47.2228E-12     47.2228E-12    100.0000E-06    100.0000E-06    -49.4719E-06    -49.5280E-06    -49.5000E-06    -49.5000E-06    100.0000E-06     169.442E-12     47.2228E-12     47.2228E-12    1000.000E-03         1.00000         1.00000     188.224E-06    -187.002E-06         1.00019    -333.334E-03     999.999E-03     611.330E-09     611.330E-09         1.00000     566.697E-09     157.936E-09     157.936E-09
             485              0.              0.              0.              0.     2.25612E-03     27.8415E-06     71.1933E-06     2.25482E-03     99.9997E-06     99.9997E-06    -49.4708E-06    -49.5289E-06    -49.4998E-06    -49.4999E-06     99.9997E-06     206.378E-12    -230.858E-12     102.868E-12     99.9997E-06     99.9997E-06    -49.4708E-06    -49.5289E-06    -49.4998E-06    -49.4999E-06     99.9997E-06     206.378E-12    -230.858E-12     102.868E-12     999.997E-03     999.997E-03     999.997E-03     194.454E-06    -194.553E-06         1.00019    -333.332E-03     999.997E-03     308.064E-09    -403.776E-09     999.997E-03     690.228E-09    -772.100E-09     344.039E-09
             486              0.              0.              0.              0.     2.25834E-03     28.1391E-06     126.887E-06     2.25460E-03     99.9856E-06     99.9856E-06    -49.4626E-06    -49.5227E-06    -49.4997E-06    -49.4856E-06     99.9856E-06     73.8715E-12    -854.151E-12     111.290E-12     99.9856E-06     99.9856E-06    -49.4626E-06    -49.5227E-06    -49.4997E-06    -49.4856E-06     99.9856E-06     73.8715E-12    -854.151E-12     111.290E-12     999.854E-03    1000.000E-03    1000.000E-03     346.109E-06    -55.4895E-06         1.00006    -333.430E-03     999.854E-03     98.0449E-06     192.580E-06    1000.000E-03     247.062E-09    -2.85669E-06     372.205E-09
             487              0.              0.              0.              0.     2.15850E-03     21.2825E-06    -120.541E-06     2.15502E-03     100.014E-06     100.014E-06    -49.4631E-06    -49.5515E-06    -49.4998E-06    -49.5148E-06     100.014E-06    -220.567E-12    -175.465E-12     181.803E-12     100.014E-06     100.014E-06    -49.4631E-06    -49.5515E-06    -49.4998E-06    -49.5148E-06     100.014E-06    -220.567E-12    -175.465E-12     181.803E-12         1.00015     999.998E-03     999.998E-03     149.014E-06    -442.705E-06         1.00044    -333.235E-03         1.00014    -96.6289E-06    -197.056E-06     999.998E-03    -737.681E-09    -586.839E-09     608.035E-09
             488              0.              0.              0.              0.     2.15618E-03     21.5885E-06    -77.3773E-06     2.15468E-03     99.9999E-06     99.9999E-06    -49.4566E-06    -49.5433E-06    -49.4999E-06    -49.5001E-06     99.9999E-06    -96.0853E-12    -228.374E-12     125.113E-12     99.9999E-06     99.9999E-06    -49.4566E-06    -49.5433E-06    -49.4999E-06    -49.5001E-06     99.9999E-06    -96.0853E-12    -228.374E-12     125.113E-12    1000.000E-03         1.00000         1.00000     291.247E-06    -288.568E-06         1.00029    -333.334E-03     999.999E-03     2.01768E-06     665.787E-09         1.00000    -321.355E-09    -763.791E-09     418.437E-09
             489              0.              0.              0.              0.     2.15507E-03     21.6594E-06    -21.6594E-06     2.15485E-03     99.9998E-06     99.9998E-06    -49.4575E-06    -49.5423E-06    -49.4999E-06    -49.4999E-06     99.9998E-06     14.1981E-12    -34.2115E-12     34.2115E-12     99.9998E-06     99.9998E-06    -49.4575E-06    -49.5423E-06    -49.4999E-06    -49.4999E-06     99.9998E-06     14.1981E-12    -34.2115E-12     34.2115E-12     999.998E-03     999.998E-03     999.998E-03     284.093E-06    -283.722E-06         1.00028    -333.333E-03     999.998E-03     185.551E-09     185.551E-09     999.998E-03     47.4852E-09    -114.419E-09     114.419E-09
             490              0.              0.              0.              0.     2.15507E-03     21.6594E-06     21.6594E-06     2.15485E-03     99.9998E-06     99.9998E-06    -49.4575E-06    -49.5423E-06    -49.4999E-06    -49.4999E-06     99.9998E-06    -14.1981E-12    -34.2115E-12    -34.2115E-12     99.9998E-06     99.9998E-06    -49.4575E-06    -49.5423E-06    -49.4999E-06    -49.4999E-06     99.9998E-06    -14.1981E-12    -34.2115E-12    -34.2115E-12     999.998E-03     999.998E-03     999.998E-03     284.093E-06    -283.722E-06         1.00028    -333.333E-03     999.998E-03     185.551E-09     185.551E-09     999.998E-03    -47.4852E-09    -114.419E-09    -114.419E-09
             491              0.              0.              0.              0.     2.15618E-03     21.5885E-06     77.3773E-06     2.15468E-03     99.9999E-06     99.9999E-06    -49.4566E-06    -49.5433E-06    -49.4999E-06    -49.5001E-06     99.9999E-06     96.0853E-12    -228.374E-12    -125.113E-12     99.9999E-06     99.9999E-06    -49.4566E-06    -49.5433E-06    -49.4999E-06    -49.5001E-06     99.9999E-06     96.0853E-12    -228.374E-12    -125.113E-12    1000.000E-03         1.00000         1.00000     291.247E-06    -288.568E-06         1.00029    -333.334E-03     999.999E-03     2.01768E-06     665.787E-09         1.00000     321.355E-09    -763.790E-09    -418.437E-09
             492              0.              0.              0.              0.     2.15850E-03     21.2825E-06     120.541E-06     2.15502E-03     100.014E-06     100.014E-06    -49.4631E-06    -49.5515E-06    -49.4998E-06    -49.5148E-06     100.014E-06     220.567E-12    -175.465E-12    -181.803E-12     100.014E-06     100.014E-06    -49.4631E-06    -49.5515E-06    -49.4998E-06    -49.5148E-06     100.014E-06     220.567E-12    -175.465E-12    -181.803E-12         1.00015     999.998E-03     999.998E-03     149.014E-06    -442.705E-06         1.00044    -333.235E-03         1.00014    -96.6289E-06    -197.056E-06     999.998E-03     737.681E-09    -586.839E-09    -608.035E-09
             493              0.              0.              0.              0.     2.05854E-03     28.3264E-06    -127.061E-06     2.05442E-03     99.9851E-06     99.9851E-06    -49.4336E-06    -49.5512E-06    -49.5001E-06    -49.4847E-06     99.9851E-06     235.074E-12     81.8339E-12    -857.980E-15     99.9851E-06     99.9851E-06    -49.4336E-06    -49.5512E-06    -49.5001E-06    -49.4847E-06     99.9851E-06     235.074E-12     81.8339E-12    -857.980E-15     999.850E-03         1.00000         1.00000     545.805E-06    -240.379E-06         1.00024    -333.436E-03     999.849E-03     101.402E-06     204.031E-06         1.00000     786.200E-09     273.692E-09    -2.87037E-09
             494              0.              0.              0.              0.     2.05630E-03     28.0087E-06    -71.0216E-06     2.05488E-03     99.9999E-06     99.9999E-06    -49.4419E-06    -49.5580E-06    -49.5000E-06    -49.4999E-06     99.9999E-06     98.0356E-12     73.4596E-12     57.8021E-12     99.9999E-06     99.9999E-06    -49.4419E-06    -49.5580E-06    -49.5000E-06    -49.4999E-06     99.9999E-06     98.0356E-12     73.4596E-12     57.8021E-12    1000.000E-03     999.999E-03     999.999E-03     388.020E-06    -388.565E-06         1.00039    -333.333E-03     999.999E-03    -674.976E-09     133.950E-09     999.999E-03     327.878E-09     245.685E-09     193.317E-09
             495              0.              0.              0.              0.     2.05503E-03     27.9404E-06    -27.9404E-06     2.05465E-03    100.0000E-06    100.0000E-06    -49.4427E-06    -49.5573E-06    -49.5000E-06    -49.5000E-06    100.0000E-06    -19.5012E-12    -58.2311E-12     58.2311E-12    100.0000E-06    100.0000E-06    -49.4427E-06    -49.5573E-06    -49.5000E-06    -49.5000E-06    100.0000E-06    -19.5012E-12    -58.2311E-12     58.2311E-12         1.00000         1.00000         1.00000     384.064E-06    -382.655E-06         1.00038    -333.334E-03     999.999E-03     705.317E-09     705.317E-09         1.00000    -65.2215E-09    -194.753E-09     194.753E-09
             496              0.              0.              0.              0.     2.05503E-03     27.9404E-06     27.9404E-06     2.05465E-03    100.0000E-06    100.0000E-06    -49.4427E-06    -49.5573E-06    -49.5000E-06    -49.5000E-06    100.0000E-06     19.5012E-12    -58.2311E-12    -58.2311E-12    100.0000E-06    100.0000E-06    -49.4427E-06    -49.5573E-06    -49.5000E-06    -49.5000E-06    100.0000E-06     19.5012E-12    -58.2311E-12    -58.2311E-12         1.00000         1.00000         1.00000     384.064E-06    -382.655E-06         1.00038    -333.334E-03     999.999E-03     705.317E-09     705.317E-09         1.00000     65.2216E-09    -194.753E-09    -194.752E-09
             497              0.              0.              0.              0.     2.05630E-03     28.0087E-06     71.0216E-06     2.05488E-03     99.9999E-06     99.9999E-06    -49.4419E-06    -49.5580E-06    -49.5000E-06    -49.4999E-06     99.9999E-06    -98.0356E-12     73.4596E-12    -57.8021E-12     99.9999E-06     99.9999E-06    -49.4419E-06    -49.5580E-06    -49.5000E-06    -49.4999E-06     99.9999E-06    -98.0356E-12     73.4596E-12    -57.8021E-12    1000.000E-03     999.999E-03     999.999E-03     388.020E-06    -388.565E-06         1.00039    -333.333E-03     999.999E-03    -674.976E-09     133.950E-09     999.999E-03    -327.878E-09     245.685E-09    -193.317E-09
             498              0.              0.              0.              0.     2.05854E-03     28.3264E-06     127.061E-06     2.05442E-03     99.9851E-06     99.9851E-06    -49.4336E-06    -49.5512E-06    -49.5001E-06    -49.4847E-06     99.9851E-06    -235.074E-12     81.8339E-12     857.980E-15     99.9851E-06     99.9851E-06    -49.4336E-06    -49.5512E-06    -49.5001E-06    -49.4847E-06     99.9851E-06    -235.074E-12     81.8339E-12     857.980E-15     999.850E-03         1.00000         1.00000     545.805E-06    -240.379E-06         1.00024    -333.436E-03     999.849E-03     101.402E-06     204.031E-06         1.00000    -786.200E-09     273.692E-09     2.87037E-09
             499              0.              0.              0.              0.     1.95901E-03     21.0340E-06    -120.305E-06     1.95520E-03     100.015E-06     100.015E-06    -49.4338E-06    -49.5820E-06    -49.4999E-06    -49.5159E-06     100.015E-06    -214.514E-12    -22.9621E-12    -3.52918E-12     100.015E-06     100.015E-06    -49.4338E-06    -49.5820E-06    -49.4999E-06    -49.5159E-06     100.015E-06    -214.514E-12    -22.9621E-12    -3.52918E-12         1.00016     999.997E-03     999.997E-03     336.501E-06    -654.584E-06         1.00065    -333.226E-03         1.00015    -105.592E-06    -212.485E-06     999.997E-03    -717.438E-09    -76.7959E-09    -11.8034E-09
             500              0.              0.              0.              0.     1.95628E-03     21.3645E-06    -77.6099E-06     1.95462E-03     100.000E-06     100.000E-06    -49.4266E-06    -49.5734E-06    -49.4999E-06    -49.5001E-06     100.000E-06    -80.7976E-12    -44.3915E-12    -9.31311E-12     100.000E-06     100.000E-06    -49.4266E-06    -49.5734E-06    -49.4999E-06    -49.5001E-06     100.000E-06    -80.7976E-12    -44.3915E-12    -9.31311E-12         1.00000         1.00000         1.00000     491.558E-06    -490.743E-06         1.00049    -333.334E-03     999.999E-03     906.170E-09    -86.7149E-09         1.00000    -270.226E-09    -148.466E-09    -31.1472E-09
             501              0.              0.              0.              0.     1.95514E-03     21.4294E-06    -21.4294E-06     1.95491E-03     99.9999E-06     99.9999E-06    -49.4272E-06    -49.5727E-06    -49.5000E-06    -49.5000E-06     99.9999E-06     26.4593E-12     7.54851E-12    -7.54850E-12     99.9999E-06     99.9999E-06    -49.4272E-06    -49.5727E-06    -49.5000E-06    -49.5000E-06     99.9999E-06     26.4593E-12     7.54851E-12    -7.54850E-12              1.     999.999E-03     999.999E-03     486.262E-06    -486.683E-06         1.00049    -333.333E-03     999.998E-03    -209.875E-09    -209.875E-09     999.999E-03     88.4926E-09     25.2455E-09    -25.2455E-09
             502              0.              0.              0.              0.     1.95514E-03     21.4294E-06     21.4294E-06     1.95491E-03     99.9999E-06     99.9999E-06    -49.4272E-06    -49.5727E-06    -49.5000E-06    -49.5000E-06     99.9999E-06    -26.4593E-12     7.54851E-12     7.54853E-12     99.9999E-06     99.9999E-06    -49.4272E-06    -49.5727E-06    -49.5000E-06    -49.5000E-06     99.9999E-06    -26.4593E-12     7.54851E-12     7.54853E-12              1.     999.999E-03     999.999E-03     486.262E-06    -486.683E-06         1.00049    -333.333E-03     999.998E-03    -209.875E-09    -209.875E-09     999.999E-03    -88.4926E-09     25.2455E-09     25.2456E-09
             503              0.              0.              0.              0.     1.95628E-03     21.3645E-06     77.6099E-06     1.95462E-03     100.000E-06     100.000E-06    -49.4266E-06    -49.5734E-06    -49.4999E-06    -49.5001E-06     100.000E-06     80.7976E-12    -44.3915E-12     9.31311E-12     100.000E-06     100.000E-06    -49.4266E-06    -49.5734E-06    -49.4999E-06    -49.5001E-06     100.000E-06     80.7976E-12    -44.3915E-12     9.31311E-12         1.00000         1.00000         1.00000     491.558E-06    -490.743E-06         1.00049    -333.334E-03     999.999E-03     906.170E-09    -86.7149E-09         1.00000     270.226E-09    -148.466E-09     31.1472E-09
             504              0.              0.              0.              0.     1.95901E-03     21.0340E-06     120.305E-06     1.95520E-03     100.015E-06     100.015E-06    -49.4338E-06    -49.5820E-06    -49.4999E-06    -49.5159E-06     100.015E-06     214.514E-12    -22.9621E-12     3.52918E-12     100.015E-06     100.015E-06    -49.4338E-06    -49.5820E-06    -49.4999E-06    -49.5159E-06     100.015E-06     214.514E-12    -22.9621E-12     3.52918E-12         1.00016     999.997E-03     999.997E-03     336.501E-06    -654.584E-06         1.00065    -333.226E-03         1.00015    -105.592E-06    -212.485E-06     999.997E-03     717.438E-09    -76.7959E-09     11.8034E-09
             505              0.              0.              0.              0.     1.85883E-03     28.6373E-06    -127.362E-06     1.85424E-03     99.9837E-06     99.9837E-06    -49.4014E-06    -49.5820E-06    -49.5001E-06    -49.4833E-06     99.9837E-06     183.183E-12    -57.9930E-12     24.0323E-12     99.9837E-06     99.9837E-06    -49.4014E-06    -49.5820E-06    -49.5001E-06    -49.4833E-06     99.9837E-06     183.183E-12    -57.9930E-12     24.0323E-12     999.837E-03         1.00000         1.00000     771.287E-06    -437.334E-06         1.00044    -333.446E-03     999.833E-03     111.017E-06     222.943E-06         1.00000     612.651E-09    -193.956E-09     80.3757E-09
             506              0.              0.              0.              0.     1.85651E-03     28.2932E-06    -70.7268E-06     1.85494E-03     99.9999E-06     99.9999E-06    -49.4104E-06    -49.5896E-06    -49.5000E-06    -49.4999E-06     99.9999E-06     59.2426E-12     10.4162E-12     2.32780E-12     99.9999E-06     99.9999E-06    -49.4104E-06    -49.5896E-06    -49.5000E-06    -49.4999E-06     99.9999E-06     59.2426E-12     10.4162E-12     2.32780E-12         1.00000     999.999E-03     999.999E-03     599.172E-06    -599.708E-06         1.00060    -333.333E-03     999.997E-03    -765.314E-09     234.329E-09     999.999E-03     198.136E-09     34.8368E-09     7.78573E-09
             507              0.              0.              0.              0.     1.85502E-03     28.2322E-06    -28.2322E-06     1.85459E-03     100.000E-06     100.000E-06    -49.4112E-06    -49.5888E-06    -49.5000E-06    -49.5000E-06     100.000E-06    -32.3487E-12     9.68835E-12    -9.68835E-12     100.000E-06     100.000E-06    -49.4112E-06    -49.5888E-06    -49.5000E-06    -49.5000E-06     100.000E-06    -32.3487E-12     9.68835E-12    -9.68835E-12         1.00000         1.00000         1.00000     594.396E-06    -593.776E-06         1.00059    -333.334E-03     999.999E-03     310.756E-09     310.756E-09         1.00000    -108.190E-09     32.4021E-09    -32.4021E-09
             508              0.              0.              0.              0.     1.85502E-03     28.2322E-06     28.2322E-06     1.85459E-03     100.000E-06     100.000E-06    -49.4112E-06    -49.5888E-06    -49.5000E-06    -49.5000E-06     100.000E-06     32.3487E-12     9.68836E-12     9.68838E-12     100.000E-06     100.000E-06    -49.4112E-06    -49.5888E-06    -49.5000E-06    -49.5000E-06     100.000E-06     32.3487E-12     9.68836E-12     9.68838E-12         1.00000         1.00000         1.00000     594.396E-06    -593.776E-06         1.00059    -333.334E-03     999.999E-03     310.756E-09     310.756E-09         1.00000     108.190E-09     32.4021E-09     32.4022E-09
             509              0.              0.              0.              0.     1.85651E-03     28.2932E-06     70.7268E-06     1.85494E-03     99.9999E-06     99.9999E-06    -49.4104E-06    -49.5896E-06    -49.5000E-06    -49.4999E-06     99.9999E-06    -59.2427E-12     10.4162E-12    -2.32780E-12     99.9999E-06     99.9999E-06    -49.4104E-06    -49.5896E-06    -49.5000E-06    -49.4999E-06     99.9999E-06    -59.2427E-12     10.4162E-12    -2.32780E-12         1.00000     999.999E-03     999.999E-03     599.172E-06    -599.708E-06         1.00060    -333.333E-03     999.997E-03    -765.314E-09     234.329E-09     999.999E-03    -198.136E-09     34.8368E-09    -7.78573E-09
             510              0.              0.              0.              0.     1.85883E-03     28.6373E-06     127.362E-06     1.85424E-03     99.9837E-06     99.9837E-06    -49.4014E-06    -49.5820E-06    -49.5001E-06    -49.4833E-06     99.9837E-06    -183.183E-12    -57.9929E-12    -24.0323E-12     99.9837E-06     99.9837E-06    -49.4014E-06    -49.5820E-06    -49.5001E-06    -49.4833E-06     99.9837E-06    -183.183E-12    -57.9929E-12    -24.0323E-12     999.837E-03         1.00000         1.00000     771.287E-06    -437.334E-06         1.00044    -333.446E-03     999.833E-03     111.017E-06     222.943E-06         1.00000    -612.651E-09    -193.956E-09    -80.3757E-09
             511              0.              0.              0.              0.     1.75961E-03     20.6579E-06    -119.938E-06     1.75540E-03     100.017E-06     100.017E-06    -49.4012E-06    -49.6163E-06    -49.4999E-06    -49.5176E-06     100.017E-06    -159.816E-12     119.632E-12    -42.7507E-12     100.017E-06     100.017E-06    -49.4012E-06    -49.6163E-06    -49.4999E-06    -49.5176E-06     100.017E-06    -159.816E-12     119.632E-12    -42.7507E-12         1.00018     999.997E-03     999.997E-03     542.959E-06    -895.669E-06         1.00089    -333.215E-03         1.00017    -117.314E-06    -235.387E-06     999.997E-03    -534.502E-09     400.107E-09    -142.980E-09
             512              0.              0.              0.              0.     1.75641E-03     21.0164E-06    -77.9696E-06     1.75456E-03     100.000E-06     100.000E-06    -49.3933E-06    -49.6067E-06    -49.5000E-06    -49.5001E-06     100.000E-06    -47.4361E-12     6.90957E-12    -4.85156E-12     100.000E-06     100.000E-06    -49.3933E-06    -49.6067E-06    -49.5000E-06    -49.5001E-06     100.000E-06    -47.4361E-12     6.90957E-12    -4.85156E-12         1.00000         1.00000         1.00000     713.909E-06    -713.372E-06         1.00071    -333.334E-03     999.998E-03     788.728E-09    -246.262E-09         1.00000    -158.649E-09     23.1089E-09    -16.2261E-09
             513              0.              0.              0.              0.     1.75523E-03     21.0734E-06    -21.0734E-06     1.75497E-03     99.9999E-06     99.9999E-06    -49.3942E-06    -49.6057E-06    -49.5000E-06    -49.5000E-06     99.9999E-06     32.4719E-12    -16.5238E-12     16.5238E-12     99.9999E-06     99.9999E-06    -49.3942E-06    -49.6057E-06    -49.5000E-06    -49.5000E-06     99.9999E-06     32.4719E-12    -16.5238E-12     16.5238E-12         1.00000     999.999E-03     999.999E-03     706.973E-06    -707.561E-06         1.00071    -333.333E-03     999.996E-03    -293.716E-09    -293.716E-09     999.999E-03     108.602E-09    -55.2638E-09     55.2638E-09
             514              0.              0.              0.              0.     1.75523E-03     21.0734E-06     21.0734E-06     1.75497E-03     99.9999E-06     99.9999E-06    -49.3942E-06    -49.6057E-06    -49.5000E-06    -49.5000E-06     99.9999E-06    -32.4719E-12    -16.5238E-12    -16.5238E-12     99.9999E-06     99.9999E-06    -49.3942E-06    -49.6057E-06    -49.5000E-06    -49.5000E-06     99.9999E-06    -32.4719E-12    -16.5238E-12    -16.5238E-12         1.00000     999.999E-03     999.999E-03     706.973E-06    -707.561E-06         1.00071    -333.333E-03     999.996E-03    -293.716E-09    -293.716E-09     999.999E-03    -108.602E-09    -55.2639E-09    -55.2639E-09
             515              0.              0.              0.              0.     1.75641E-03     21.0164E-06     77.9696E-06     1.75456E-03     100.000E-06     100.000E-06    -49.3933E-06    -49.6067E-06    -49.5000E-06    -49.5001E-06     100.000E-06     47.4361E-12     6.90969E-12     4.85156E-12     100.000E-06     100.000E-06    -49.3933E-06    -49.6067E-06    -49.5000E-06    -49.5001E-06     100.000E-06     47.4361E-12     6.90969E-12     4.85156E-12         1.00000         1.00000         1.00000     713.909E-06    -713.372E-06         1.00071    -333.334E-03     999.998E-03     788.728E-09    -246.262E-09         1.00000     158.649E-09     23.1089E-09     16.2261E-09
             516              0.              0.              0.              0.     1.75961E-03     20.6579E-06     119.938E-06     1.75540E-03     100.017E-06     100.017E-06    -49.4012E-06    -49.6163E-06    -49.4999E-06    -49.5176E-06     100.017E-06     159.816E-12     119.632E-12     42.7507E-12     100.017E-06     100.017E-06    -49.4012E-06    -49.6163E-06    -49.4999E-06    -49.5176E-06     100.017E-06     159.816E-12     119.632E-12     42.7507E-12         1.00018     999.997E-03     999.997E-03     542.959E-06    -895.669E-06         1.00089    -333.215E-03         1.00017    -117.314E-06    -235.387E-06     999.997E-03     534.502E-09     400.107E-09     142.980E-09
             517              0.              0.              0.              0.     1.65921E-03     29.0823E-06    -127.799E-06     1.65403E-03     99.9817E-06     99.9817E-06    -49.3649E-06    -49.6164E-06    -49.5001E-06    -49.4813E-06     99.9817E-06     145.950E-12    -158.367E-12     41.3185E-12     99.9817E-06     99.9817E-06    -49.3649E-06    -49.6164E-06    -49.5001E-06    -49.4813E-06     99.9817E-06     145.950E-12    -158.367E-12     41.3185E-12     999.818E-03         1.00000         1.00000     1.02835E-03    -653.707E-06         1.00066    -333.459E-03     999.811E-03     124.651E-06     250.002E-06         1.00000     488.128E-09    -529.656E-09     138.189E-09
             518              0.              0.              0.              0.     1.65675E-03     28.7084E-06    -70.2988E-06     1.65501E-03     99.9999E-06     99.9999E-06    -49.3752E-06    -49.6247E-06    -49.5000E-06    -49.4999E-06     99.9999E-06     42.5842E-12    -3.97594E-12    -11.2733E-12     99.9999E-06     99.9999E-06    -49.3752E-06    -49.6247E-06    -49.5000E-06    -49.4999E-06     99.9999E-06     42.5842E-12    -3.97594E-12    -11.2733E-12         1.00000     999.999E-03     999.999E-03     834.198E-06    -834.821E-06         1.00083    -333.333E-03     999.995E-03    -845.932E-09     228.349E-09     999.999E-03     142.422E-09    -13.2977E-09    -37.7031E-09
             519              0.              0.              0.              0.     1.65502E-03     28.6557E-06    -28.6557E-06     1.65453E-03     100.000E-06     100.000E-06    -49.3764E-06    -49.6237E-06    -49.5000E-06    -49.5000E-06     100.000E-06    -30.3909E-12     31.9326E-12    -31.9326E-12     100.000E-06     100.000E-06    -49.3764E-06    -49.6237E-06    -49.5000E-06    -49.5000E-06     100.000E-06    -30.3909E-12     31.9326E-12    -31.9326E-12         1.00000         1.00000         1.00000     827.389E-06    -826.772E-06         1.00083    -333.334E-03     999.997E-03     309.039E-09     309.039E-09         1.00000    -101.642E-09     106.797E-09    -106.797E-09
             520              0.              0.              0.              0.     1.65502E-03     28.6557E-06     28.6557E-06     1.65453E-03     100.000E-06     100.000E-06    -49.3764E-06    -49.6237E-06    -49.5000E-06    -49.5000E-06     100.000E-06     30.3910E-12     31.9326E-12     31.9326E-12     100.000E-06     100.000E-06    -49.3764E-06    -49.6237E-06    -49.5000E-06    -49.5000E-06     100.000E-06     30.3910E-12     31.9326E-12     31.9326E-12         1.00000         1.00000         1.00000     827.389E-06    -826.772E-06         1.00083    -333.334E-03     999.997E-03     309.039E-09     309.039E-09         1.00000     101.642E-09     106.797E-09     106.797E-09
             521              0.              0.              0.              0.     1.65675E-03     28.7084E-06     70.2988E-06     1.65501E-03     99.9999E-06     99.9999E-06    -49.3752E-06    -49.6247E-06    -49.5000E-06    -49.4999E-06     99.9999E-06    -42.5842E-12    -3.97582E-12     11.2733E-12     99.9999E-06     99.9999E-06    -49.3752E-06    -49.6247E-06    -49.5000E-06    -49.4999E-06     99.9999E-06    -42.5842E-12    -3.97582E-12     11.2733E-12         1.00000     999.999E-03     999.999E-03     834.198E-06    -834.821E-06         1.00083    -333.333E-03     999.995E-03    -845.932E-09     228.349E-09     999.999E-03    -142.422E-09    -13.2977E-09     37.7031E-09
             522              0.              0.              0.              0.     1.65921E-03     29.0823E-06     127.799E-06     1.65403E-03     99.9817E-06     99.9817E-06    -49.3649E-06    -49.6164E-06    -49.5001E-06    -49.4813E-06     99.9817E-06    -145.950E-12    -158.367E-12    -41.3185E-12     99.9817E-06     99.9817E-06    -49.3649E-06    -49.6164E-06    -49.5001E-06    -49.4813E-06     99.9817E-06    -145.950E-12    -158.367E-12    -41.3185E-12     999.818E-03         1.00000         1.00000     1.02835E-03    -653.707E-06         1.00066    -333.459E-03     999.811E-03     124.651E-06     250.002E-06         1.00000    -488.128E-09    -529.656E-09    -138.189E-09
             523              0.              0.              0.              0.     1.56033E-03     20.1399E-06    -119.425E-06     1.55562E-03     100.019E-06     100.019E-06    -49.3648E-06    -49.6551E-06    -49.4999E-06    -49.5200E-06     100.019E-06    -137.687E-12     200.393E-12    -47.4158E-12     100.019E-06     100.019E-06    -49.3648E-06    -49.6551E-06    -49.4999E-06    -49.5200E-06     100.019E-06    -137.687E-12     200.393E-12    -47.4158E-12         1.00020     999.997E-03     999.997E-03     770.559E-06    -1.17069E-03         1.00117    -333.199E-03         1.00019    -133.145E-06    -266.980E-06     999.997E-03    -460.490E-09     670.212E-09    -158.579E-09
             524              0.              0.              0.              0.     1.55660E-03     20.5305E-06    -78.4700E-06     1.55448E-03     100.000E-06     100.000E-06    -49.3560E-06    -49.6440E-06    -49.5000E-06    -49.5001E-06     100.000E-06    -36.9424E-12     5.98666E-12     10.5075E-12     100.000E-06     100.000E-06    -49.3560E-06    -49.6440E-06    -49.5000E-06    -49.5001E-06     100.000E-06    -36.9424E-12     5.98666E-12     10.5075E-12         1.00000         1.00000         1.00000     963.507E-06    -962.915E-06         1.00096    -333.334E-03     999.995E-03     864.165E-09    -265.936E-09         1.00000    -123.553E-09     20.0221E-09     35.1433E-09
             525              0.              0.              0.              0.     1.55532E-03     20.5784E-06    -20.5784E-06     1.55505E-03     99.9999E-06     99.9999E-06    -49.3572E-06    -49.6427E-06    -49.5000E-06    -49.5000E-06     99.9999E-06     31.9009E-12    -34.2154E-12     34.2154E-12     99.9999E-06     99.9999E-06    -49.3572E-06    -49.6427E-06    -49.5000E-06    -49.5000E-06     99.9999E-06     31.9009E-12    -34.2154E-12     34.2154E-12         1.00000     999.999E-03     999.999E-03     954.200E-06    -955.156E-06         1.00095    -333.333E-03     999.994E-03    -477.201E-09    -477.201E-09     999.999E-03     106.692E-09    -114.433E-09     114.433E-09
             526              0.              0.              0.              0.     1.55532E-03     20.5784E-06     20.5784E-06     1.55505E-03     99.9999E-06     99.9999E-06    -49.3572E-06    -49.6427E-06    -49.5000E-06    -49.5000E-06     99.9999E-06    -31.9009E-12    -34.2154E-12    -34.2154E-12     99.9999E-06     99.9999E-06    -49.3572E-06    -49.6427E-06    -49.5000E-06    -49.5000E-06     99.9999E-06    -31.9009E-12    -34.2154E-12    -34.2154E-12         1.00000     999.999E-03     999.999E-03     954.200E-06    -955.156E-06         1.00095    -333.333E-03     999.994E-03    -477.201E-09    -477.201E-09     999.999E-03    -106.692E-09    -114.433E-09    -114.433E-09
             527              0.              0.              0.              0.     1.55660E-03     20.5305E-06     78.4700E-06     1.55448E-03     100.000E-06     100.000E-06    -49.3560E-06    -49.6440E-06    -49.5000E-06    -49.5001E-06     100.000E-06     36.9424E-12     5.98666E-12    -10.5075E-12     100.000E-06     100.000E-06    -49.3560E-06    -49.6440E-06    -49.5000E-06    -49.5001E-06     100.000E-06     36.9424E-12     5.98666E-12    -10.5075E-12         1.00000         1.00000         1.00000     963.507E-06    -962.915E-06         1.00096    -333.334E-03     999.995E-03     864.165E-09    -265.936E-09         1.00000     123.553E-09     20.0221E-09    -35.1433E-09
             528              0.              0.              0.              0.     1.56033E-03     20.1399E-06     119.425E-06     1.55562E-03     100.019E-06     100.019E-06    -49.3648E-06    -49.6551E-06    -49.4999E-06    -49.5200E-06     100.019E-06     137.687E-12     200.393E-12     47.4158E-12     100.019E-06     100.019E-06    -49.3648E-06    -49.6551E-06    -49.4999E-06    -49.5200E-06     100.019E-06     137.687E-12     200.393E-12     47.4158E-12         1.00020     999.997E-03     999.997E-03     770.559E-06    -1.17069E-03         1.00117    -333.199E-03         1.00019    -133.145E-06    -266.980E-06     999.997E-03     460.490E-09     670.212E-09     158.579E-09
             529              0.              0.              0.              0.     1.45976E-03     29.6779E-06    -128.391E-06     1.45380E-03     99.9791E-06     99.9791E-06    -49.3235E-06    -49.6552E-06    -49.5001E-06    -49.4786E-06     99.9791E-06     146.914E-12    -287.770E-12     64.0354E-12     99.9791E-06     99.9791E-06    -49.3235E-06    -49.6552E-06    -49.5001E-06    -49.4786E-06     99.9791E-06     146.914E-12    -287.770E-12     64.0354E-12     999.793E-03         1.00000         1.00000     1.32392E-03    -895.065E-06         1.00090    -333.477E-03     999.782E-03     142.487E-06     286.381E-06         1.00000     491.352E-09    -962.442E-09     214.170E-09
             530              0.              0.              0.              0.     1.45705E-03     29.2695E-06    -69.7214E-06     1.45509E-03     99.9999E-06     99.9999E-06    -49.3354E-06    -49.6646E-06    -49.5001E-06    -49.4999E-06     99.9999E-06     39.8559E-12    -49.2918E-12     41.1847E-12     99.9999E-06     99.9999E-06    -49.3354E-06    -49.6646E-06    -49.5001E-06    -49.4999E-06     99.9999E-06     39.8559E-12    -49.2918E-12     41.1847E-12         1.00000     999.999E-03     999.999E-03     1.10028E-03    -1.10173E-03         1.00110    -333.332E-03     999.992E-03    -1.45234E-06     189.175E-12     999.999E-03     133.297E-09    -164.856E-09     137.744E-09
             531              0.              0.              0.              0.     1.45504E-03     29.2268E-06    -29.2268E-06     1.45445E-03     100.000E-06     100.000E-06    -49.3369E-06    -49.6632E-06    -49.5001E-06    -49.5001E-06     100.000E-06    -33.6013E-12    -9.16699E-12     9.16700E-12     100.000E-06     100.000E-06    -49.3369E-06    -49.6632E-06    -49.5001E-06    -49.5001E-06     100.000E-06    -33.6013E-12    -9.16699E-12     9.16700E-12         1.00001         1.00000         1.00000     1.09115E-03    -1.09121E-03         1.00109    -333.334E-03     999.994E-03    -29.2493E-09    -29.2493E-09         1.00000    -112.379E-09    -30.6590E-09     30.6591E-09
             532              0.              0.              0.              0.     1.45504E-03     29.2268E-06     29.2268E-06     1.45445E-03     100.000E-06     100.000E-06    -49.3369E-06    -49.6632E-06    -49.5001E-06    -49.5001E-06     100.000E-06     33.6013E-12    -9.16699E-12    -9.16700E-12     100.000E-06     100.000E-06    -49.3369E-06    -49.6632E-06    -49.5001E-06    -49.5001E-06     100.000E-06     33.6013E-12    -9.16699E-12    -9.16700E-12         1.00001         1.00000         1.00000     1.09115E-03    -1.09121E-03         1.00109    -333.334E-03     999.994E-03    -29.2493E-09    -29.2493E-09         1.00000     112.379E-09    -30.6590E-09    -30.6591E-09
             533              0.              0.              0.              0.     1.45705E-03     29.2695E-06     69.7214E-06     1.45509E-03     99.9999E-06     99.9999E-06    -49.3354E-06    -49.6646E-06    -49.5001E-06    -49.4999E-06     99.9999E-06    -39.8559E-12    -49.2918E-12    -41.1847E-12     99.9999E-06     99.9999E-06    -49.3354E-06    -49.6646E-06    -49.5001E-06    -49.4999E-06     99.9999E-06    -39.8559E-12    -49.2918E-12    -41.1847E-12         1.00000     999.999E-03     999.999E-03     1.10028E-03    -1.10173E-03         1.00110    -333.332E-03     999.992E-03    -1.45234E-06     189.175E-12     999.999E-03    -133.297E-09    -164.856E-09    -137.743E-09
             534              0.              0.              0.              0.     1.45976E-03     29.6779E-06     128.391E-06     1.45380E-03     99.9791E-06     99.9791E-06    -49.3235E-06    -49.6552E-06    -49.5001E-06    -49.4786E-06     99.9791E-06    -146.914E-12    -287.770E-12    -64.0354E-12     99.9791E-06     99.9791E-06    -49.3235E-06    -49.6552E-06    -49.5001E-06    -49.4786E-06     99.9791E-06    -146.914E-12    -287.770E-12    -64.0354E-12     999.793E-03         1.00000         1.00000     1.32392E-03    -895.065E-06         1.00090    -333.477E-03     999.782E-03     142.487E-06     286.381E-06         1.00000    -491.352E-09    -962.442E-09    -214.168E-09
             535              0.              0.              0.              0.     1.36120E-03     19.4619E-06    -118.749E-06     1.35587E-03     100.023E-06     100.023E-06    -49.3234E-06    -49.6997E-06    -49.5000E-06    -49.5230E-06     100.023E-06    -178.399E-12     248.776E-12     175.723E-12     100.023E-06     100.023E-06    -49.3234E-06    -49.6997E-06    -49.5000E-06    -49.5230E-06     100.023E-06    -178.399E-12     248.776E-12     175.723E-12         1.00023     999.996E-03     999.996E-03     1.02644E-03    -1.49065E-03         1.00149    -333.177E-03         1.00022    -155.001E-06    -309.198E-06     999.996E-03    -596.651E-09     832.028E-09     587.703E-09
             536              0.              0.              0.              0.     1.35686E-03     19.8890E-06    -79.1301E-06     1.35440E-03     100.000E-06     100.000E-06    -49.3134E-06    -49.6868E-06    -49.5000E-06    -49.5002E-06     100.000E-06    -46.3121E-12    -34.8496E-12     143.067E-12     100.000E-06     100.000E-06    -49.3134E-06    -49.6868E-06    -49.5000E-06    -49.5002E-06     100.000E-06    -46.3121E-12    -34.8496E-12     143.067E-12         1.00001         1.00000         1.00000     1.24870E-03    -1.24926E-03         1.00125    -333.334E-03     999.993E-03     323.809E-09    -876.229E-09         1.00000    -154.890E-09    -116.553E-09     478.485E-09
             537              0.              0.              0.              0.     1.35542E-03     19.9258E-06    -19.9258E-06     1.35513E-03     100.000E-06     100.000E-06    -49.3150E-06    -49.6851E-06    -49.5000E-06    -49.5000E-06     100.000E-06     42.8871E-12    -55.2055E-12     55.2053E-12     100.000E-06     100.000E-06    -49.3150E-06    -49.6851E-06    -49.5000E-06    -49.5000E-06     100.000E-06     42.8871E-12    -55.2055E-12     55.2053E-12         1.00001     999.999E-03     999.999E-03     1.23673E-03    -1.23893E-03         1.00124    -333.332E-03     999.991E-03    -1.10024E-06    -1.10024E-06     999.999E-03     143.435E-09    -184.633E-09     184.633E-09
             538              0.              0.              0.              0.     1.35542E-03     19.9258E-06     19.9258E-06     1.35513E-03     100.000E-06     100.000E-06    -49.3150E-06    -49.6851E-06    -49.5000E-06    -49.5000E-06     100.000E-06    -42.8871E-12    -55.2053E-12    -55.2053E-12     100.000E-06     100.000E-06    -49.3150E-06    -49.6851E-06    -49.5000E-06    -49.5000E-06     100.000E-06    -42.8871E-12    -55.2053E-12    -55.2053E-12         1.00001     999.999E-03     999.999E-03     1.23673E-03    -1.23893E-03         1.00124    -333.332E-03     999.991E-03    -1.10024E-06    -1.10024E-06     999.999E-03    -143.435E-09    -184.633E-09    -184.633E-09
             539              0.              0.              0.              0.     1.35686E-03     19.8890E-06     79.1301E-06     1.35440E-03     100.000E-06     100.000E-06    -49.3134E-06    -49.6868E-06    -49.5000E-06    -49.5002E-06     100.000E-06     46.3122E-12    -34.8493E-12    -143.067E-12     100.000E-06     100.000E-06    -49.3134E-06    -49.6868E-06    -49.5000E-06    -49.5002E-06     100.000E-06     46.3122E-12    -34.8493E-12    -143.067E-12         1.00001         1.00000         1.00000     1.24870E-03    -1.24926E-03         1.00125    -333.334E-03     999.993E-03     323.809E-09    -876.229E-09         1.00000     154.890E-09    -116.553E-09    -478.484E-09
             540              0.              0.              0.              0.     1.36120E-03     19.4619E-06     118.749E-06     1.35587E-03     100.023E-06     100.023E-06    -49.3234E-06    -49.6997E-06    -49.5000E-06    -49.5230E-06     100.023E-06     178.399E-12     248.776E-12    -175.723E-12     100.023E-06     100.023E-06    -49.3234E-06    -49.6997E-06    -49.5000E-06    -49.5230E-06     100.023E-06     178.399E-12     248.776E-12    -175.723E-12         1.00023     999.996E-03     999.996E-03     1.02644E-03    -1.49065E-03         1.00149    -333.177E-03         1.00022    -155.001E-06    -309.198E-06     999.996E-03     596.651E-09     832.028E-09    -587.701E-09
             541              0.              0.              0.              0.     1.26053E-03     30.4437E-06    -129.158E-06     1.25353E-03     99.9756E-06     99.9756E-06    -49.2752E-06    -49.7000E-06    -49.5003E-06    -49.4748E-06     99.9756E-06     171.570E-12    -635.743E-12     80.4405E-12     99.9756E-06     99.9756E-06    -49.2752E-06    -49.7000E-06    -49.5003E-06    -49.4748E-06     99.9756E-06     171.570E-12    -635.743E-12     80.4405E-12     999.760E-03         1.00000         1.00000     1.67069E-03    -1.17075E-03         1.00117    -333.501E-03     999.742E-03     164.907E-06     335.049E-06         1.00000     573.814E-09    -2.12623E-06     269.032E-09
             542              0.              0.              0.              0.     1.25743E-03     29.9975E-06    -68.9729E-06     1.25518E-03     100.000E-06     100.000E-06    -49.2893E-06    -49.7107E-06    -49.5003E-06    -49.4997E-06     100.000E-06    -47.2131E-12    -341.087E-12     509.384E-12     100.000E-06     100.000E-06    -49.2893E-06    -49.7107E-06    -49.5003E-06    -49.4997E-06     100.000E-06    -47.2131E-12    -341.087E-12     509.384E-12         1.00001     999.999E-03     999.999E-03     1.40807E-03    -1.41051E-03         1.00141    -333.332E-03     999.988E-03    -3.06813E-06     637.956E-09     999.999E-03    -157.903E-09    -1.14076E-06     1.70363E-06
             543              0.              0.              0.              0.     1.25508E-03     29.9671E-06    -29.9671E-06     1.25436E-03     100.001E-06     100.001E-06    -49.2917E-06    -49.7090E-06    -49.5004E-06    -49.5004E-06     100.001E-06    -132.998E-12    -469.164E-12     469.164E-12     100.001E-06     100.001E-06    -49.2917E-06    -49.7090E-06    -49.5004E-06    -49.5004E-06     100.001E-06    -132.998E-12    -469.164E-12     469.164E-12         1.00001         1.00001         1.00001     1.39424E-03    -1.39712E-03         1.00140    -333.334E-03     999.995E-03    -1.43636E-06    -1.43636E-06         1.00001    -444.811E-09    -1.56911E-06     1.56911E-06
             544              0.              0.              0.              0.     1.25508E-03     29.9671E-06     29.9671E-06     1.25436E-03     100.001E-06     100.001E-06    -49.2917E-06    -49.7090E-06    -49.5004E-06    -49.5004E-06     100.001E-06     132.998E-12    -469.164E-12    -469.164E-12     100.001E-06     100.001E-06    -49.2917E-06    -49.7090E-06    -49.5004E-06    -49.5004E-06     100.001E-06     132.998E-12    -469.164E-12    -469.164E-12         1.00001         1.00001         1.00001     1.39424E-03    -1.39712E-03         1.00140    -333.334E-03     999.995E-03    -1.43636E-06    -1.43636E-06         1.00001     444.811E-09    -1.56911E-06    -1.56911E-06
             545              0.              0.              0.              0.     1.25743E-03     29.9975E-06     68.9729E-06     1.25518E-03     100.000E-06     100.000E-06    -49.2893E-06    -49.7107E-06    -49.5003E-06    -49.4997E-06     100.000E-06     47.2132E-12    -341.087E-12    -509.384E-12     100.000E-06     100.000E-06    -49.2893E-06    -49.7107E-06    -49.5003E-06    -49.4997E-06     100.000E-06     47.2132E-12    -341.087E-12    -509.384E-12         1.00001     999.999E-03     999.999E-03     1.40807E-03    -1.41051E-03         1.00141    -333.332E-03     999.988E-03    -3.06813E-06     637.956E-09     999.999E-03     157.903E-09    -1.14076E-06    -1.70363E-06
             546              0.              0.              0.              0.     1.26053E-03     30.4437E-06     129.158E-06     1.25353E-03     99.9756E-06     99.9756E-06    -49.2752E-06    -49.7000E-06    -49.5003E-06    -49.4748E-06     99.9756E-06    -171.570E-12    -635.743E-12    -80.4405E-12     99.9756E-06     99.9756E-06    -49.2752E-06    -49.7000E-06    -49.5003E-06    -49.4748E-06     99.9756E-06    -171.570E-12    -635.743E-12    -80.4405E-12     999.760E-03         1.00000         1.00000     1.67069E-03    -1.17075E-03         1.00117    -333.501E-03     999.742E-03     164.907E-06     335.049E-06         1.00000    -573.814E-09    -2.12623E-06    -269.032E-09
             547              0.              0.              0.              0.     1.16230E-03     18.6030E-06    -117.884E-06     1.15616E-03     100.027E-06     100.027E-06    -49.2749E-06    -49.7523E-06    -49.5000E-06    -49.5271E-06     100.027E-06    -509.567E-12     248.030E-12     1.10156E-09     100.027E-06     100.027E-06    -49.2749E-06    -49.7523E-06    -49.5000E-06    -49.5271E-06     100.027E-06    -509.567E-12     248.030E-12     1.10156E-09         1.00028     999.993E-03     999.993E-03     1.32149E-03    -1.87187E-03         1.00187    -333.148E-03         1.00025    -184.300E-06    -366.063E-06     999.993E-03    -1.70424E-06     829.531E-09     3.68414E-06
             548              0.              0.              0.              0.     1.15723E-03     19.0679E-06    -79.9753E-06     1.15430E-03     100.000E-06     100.000E-06    -49.2637E-06    -49.7368E-06    -49.5000E-06    -49.5005E-06     100.000E-06    -180.837E-12    -89.8253E-12     365.707E-12     100.000E-06     100.000E-06    -49.2637E-06    -49.7368E-06    -49.5000E-06    -49.5005E-06     100.000E-06    -180.837E-12    -89.8253E-12     365.707E-12         1.00001         1.00000         1.00000     1.58200E-03    -1.58305E-03         1.00159    -333.334E-03     999.990E-03     1.04090E-06    -2.08104E-06         1.00000    -604.807E-09    -300.419E-09     1.22310E-06
             549              0.              0.              0.              0.     1.15554E-03     19.0923E-06    -19.0923E-06     1.15522E-03     100.000E-06     100.000E-06    -49.2660E-06    -49.7341E-06    -49.5000E-06    -49.5000E-06     100.000E-06     73.9462E-12     185.072E-12    -185.072E-12     100.000E-06     100.000E-06    -49.2660E-06    -49.7341E-06    -49.5000E-06    -49.5000E-06     100.000E-06     73.9462E-12     185.072E-12    -185.072E-12         1.00001         1.00000         1.00000     1.56950E-03    -1.56149E-03         1.00157    -333.337E-03     999.986E-03     4.00768E-06     4.00768E-06         1.00000     247.312E-09     618.970E-09    -618.970E-09
             550              0.              0.              0.              0.     1.15554E-03     19.0923E-06     19.0923E-06     1.15522E-03     100.000E-06     100.000E-06    -49.2660E-06    -49.7341E-06    -49.5000E-06    -49.5000E-06     100.000E-06    -73.9462E-12     185.072E-12     185.072E-12     100.000E-06     100.000E-06    -49.2660E-06    -49.7341E-06    -49.5000E-06    -49.5000E-06     100.000E-06    -73.9462E-12     185.072E-12     185.072E-12         1.00001         1.00000         1.00000     1.56950E-03    -1.56149E-03         1.00157    -333.337E-03     999.986E-03     4.00768E-06     4.00768E-06         1.00000    -247.312E-09     618.970E-09     618.970E-09
             551              0.              0.              0.              0.     1.15723E-03     19.0679E-06     79.9753E-06     1.15430E-03     100.000E-06     100.000E-06    -49.2637E-06    -49.7368E-06    -49.5000E-06    -49.5005E-06     100.000E-06     180.837E-12    -89.8252E-12    -365.707E-12     100.000E-06     100.000E-06    -49.2637E-06    -49.7368E-06    -49.5000E-06    -49.5005E-06     100.000E-06     180.837E-12    -89.8252E-12    -365.707E-12         1.00001         1.00000         1.00000     1.58200E-03    -1.58305E-03         1.00159    -333.334E-03     999.990E-03     1.04090E-06    -2.08104E-06         1.00000     604.807E-09    -300.419E-09    -1.22310E-06
             552              0.              0.              0.              0.     1.16230E-03     18.6030E-06     117.884E-06     1.15616E-03     100.027E-06     100.027E-06    -49.2749E-06    -49.7523E-06    -49.5000E-06    -49.5271E-06     100.027E-06     509.567E-12     248.030E-12    -1.10156E-09     100.027E-06     100.027E-06    -49.2749E-06    -49.7523E-06    -49.5000E-06    -49.5271E-06     100.027E-06     509.567E-12     248.030E-12    -1.10156E-09         1.00028     999.993E-03     999.993E-03     1.32149E-03    -1.87187E-03         1.00187    -333.148E-03         1.00025    -184.300E-06    -366.063E-06     999.993E-03     1.70424E-06     829.531E-09    -3.68414E-06
             553              0.              0.              0.              0.     1.06169E-03     31.4021E-06    -130.132E-06     1.05321E-03     99.9694E-06     99.9694E-06    -49.2174E-06    -49.7515E-06    -49.4992E-06    -49.4697E-06     99.9694E-06     346.884E-12     622.669E-12    -1.34196E-09     99.9694E-06     99.9694E-06    -49.2174E-06    -49.7515E-06    -49.4992E-06    -49.4697E-06     99.9694E-06     346.884E-12     622.669E-12    -1.34196E-09     999.701E-03    1000.000E-03    1000.000E-03     2.09461E-03    -1.47791E-03         1.00148    -333.539E-03     999.673E-03     209.679E-06     407.043E-06    1000.000E-03     1.16015E-06     2.08251E-06    -4.48815E-06
             554              0.              0.              0.              0.     1.05792E-03     30.9201E-06    -68.0244E-06     1.05528E-03     99.9984E-06     99.9984E-06    -49.2343E-06    -49.7640E-06    -49.4993E-06    -49.4990E-06     99.9984E-06    -347.773E-12     748.446E-12    -403.687E-12     99.9984E-06     99.9984E-06    -49.2343E-06    -49.7640E-06    -49.4993E-06    -49.4990E-06     99.9984E-06    -347.773E-12     748.446E-12    -403.687E-12     999.993E-03     999.998E-03     999.998E-03     1.78622E-03    -1.75687E-03         1.00176    -333.343E-03     999.965E-03     13.7061E-06     15.6663E-06     999.998E-03    -1.16312E-06     2.50317E-06    -1.35012E-06
             555              0.              0.              0.              0.     1.05516E-03     30.9005E-06    -30.9005E-06     1.05426E-03     99.9995E-06     99.9995E-06    -49.2378E-06    -49.7617E-06    -49.4997E-06    -49.4997E-06     99.9995E-06    -521.215E-12    -267.292E-12     267.292E-12     99.9995E-06     99.9995E-06    -49.2378E-06    -49.7617E-06    -49.4997E-06    -49.4997E-06     99.9995E-06    -521.215E-12    -267.292E-12     267.292E-12         1.00000         1.00001         1.00001     1.76537E-03    -1.73857E-03         1.00175    -333.345E-03     999.977E-03     13.4020E-06     13.4020E-06         1.00001    -1.74319E-06    -893.951E-09     893.951E-09
             556              0.              0.              0.              0.     1.05516E-03     30.9005E-06     30.9005E-06     1.05426E-03     99.9995E-06     99.9995E-06    -49.2378E-06    -49.7617E-06    -49.4997E-06    -49.4997E-06     99.9995E-06     521.215E-12    -267.292E-12    -267.292E-12     99.9995E-06     99.9995E-06    -49.2378E-06    -49.7617E-06    -49.4997E-06    -49.4997E-06     99.9995E-06     521.215E-12    -267.292E-12    -267.292E-12         1.00000         1.00001         1.00001     1.76537E-03    -1.73857E-03         1.00175    -333.345E-03     999.977E-03     13.4020E-06     13.4020E-06         1.00001     1.74319E-06    -893.951E-09    -893.951E-09
             557              0.              0.              0.              0.     1.05792E-03     30.9201E-06     68.0244E-06     1.05528E-03     99.9984E-06     99.9984E-06    -49.2343E-06    -49.7640E-06    -49.4993E-06    -49.4990E-06     99.9984E-06     347.773E-12     748.446E-12     403.687E-12     99.9984E-06     99.9984E-06    -49.2343E-06    -49.7640E-06    -49.4993E-06    -49.4990E-06     99.9984E-06     347.773E-12     748.446E-12     403.687E-12     999.993E-03     999.998E-03     999.998E-03     1.78622E-03    -1.75687E-03         1.00176    -333.343E-03     999.965E-03     13.7061E-06     15.6663E-06     999.998E-03     1.16312E-06     2.50317E-06     1.35012E-06
             558              0.              0.              0.              0.     1.06169E-03     31.4021E-06     130.132E-06     1.05321E-03     99.9694E-06     99.9694E-06    -49.2174E-06    -49.7515E-06    -49.4992E-06    -49.4697E-06     99.9694E-06    -346.884E-12     622.670E-12     1.34196E-09     99.9694E-06     99.9694E-06    -49.2174E-06    -49.7515E-06    -49.4992E-06    -49.4697E-06     99.9694E-06    -346.884E-12     622.670E-12     1.34196E-09     999.701E-03    1000.000E-03    1000.000E-03     2.09461E-03    -1.47791E-03         1.00148    -333.539E-03     999.673E-03     209.679E-06     407.043E-06    1000.000E-03    -1.16015E-06     2.08251E-06     4.48815E-06
             559              0.              0.              0.              0.     963.765E-06     17.5348E-06    -116.786E-06     956.502E-06     100.030E-06     100.030E-06    -49.2144E-06    -49.8160E-06    -49.4962E-06    -49.5342E-06     100.030E-06    -1.26153E-09     2.58790E-09    -4.89637E-09     100.030E-06     100.030E-06    -49.2144E-06    -49.8160E-06    -49.4962E-06    -49.5342E-06     100.030E-06    -1.26153E-09     2.58790E-09    -4.89637E-09         1.00031         1.00000         1.00000     1.71082E-03    -2.31333E-03         1.00231    -333.133E-03         1.00028    -174.151E-06    -428.324E-06         1.00000    -4.21916E-06     8.65518E-06    -16.3758E-06
             560              0.              0.              0.              0.     957.804E-06     18.0300E-06    -81.0325E-06     954.199E-06     99.9961E-06     99.9961E-06    -49.2009E-06    -49.7951E-06    -49.4962E-06    -49.4998E-06     99.9960E-06    -239.577E-12     2.46810E-09    -6.47978E-09     99.9961E-06     99.9961E-06    -49.2009E-06    -49.7951E-06    -49.4962E-06    -49.4998E-06     99.9960E-06    -239.577E-12     2.46810E-09    -6.47978E-09     999.972E-03     999.993E-03     999.993E-03     2.02027E-03    -1.95413E-03         1.00195    -333.353E-03     999.937E-03     45.2885E-06     20.8725E-06     999.993E-03    -801.262E-09     8.25453E-06    -21.6715E-06
             561              0.              0.              0.              0.     955.674E-06     18.0503E-06    -18.0503E-06     955.333E-06     99.9919E-06     99.9919E-06    -49.2037E-06    -49.7881E-06    -49.4959E-06    -49.4959E-06     99.9919E-06     391.188E-12     4.03159E-09    -4.03159E-09     99.9919E-06     99.9919E-06    -49.2037E-06    -49.7881E-06    -49.4959E-06    -49.4959E-06     99.9919E-06     391.188E-12     4.03159E-09    -4.03159E-09     999.930E-03     999.980E-03     999.980E-03     2.01542E-03    -1.89340E-03         1.00187    -333.367E-03     999.896E-03     61.0138E-06     61.0138E-06     999.980E-03     1.30832E-06     13.4836E-06    -13.4836E-06
             562              0.              0.              0.              0.     955.674E-06     18.0503E-06     18.0503E-06     955.333E-06     99.9919E-06     99.9919E-06    -49.2037E-06    -49.7881E-06    -49.4959E-06    -49.4959E-06     99.9919E-06    -391.188E-12     4.03159E-09     4.03159E-09     99.9919E-06     99.9919E-06    -49.2037E-06    -49.7881E-06    -49.4959E-06    -49.4959E-06     99.9919E-06    -391.188E-12     4.03159E-09     4.03159E-09     999.930E-03     999.980E-03     999.980E-03     2.01542E-03    -1.89340E-03         1.00187    -333.367E-03     999.896E-03     61.0138E-06     61.0138E-06     999.980E-03    -1.30832E-06     13.4836E-06     13.4836E-06
             563              0.              0.              0.              0.     957.804E-06     18.0300E-06     81.0325E-06     954.199E-06     99.9961E-06     99.9961E-06    -49.2009E-06    -49.7951E-06    -49.4962E-06    -49.4998E-06     99.9960E-06     239.577E-12     2.46810E-09     6.47978E-09     99.9961E-06     99.9961E-06    -49.2009E-06    -49.7951E-06    -49.4962E-06    -49.4998E-06     99.9960E-06     239.577E-12     2.46810E-09     6.47978E-09     999.972E-03     999.993E-03     999.993E-03     2.02027E-03    -1.95413E-03         1.00195    -333.353E-03     999.937E-03     45.2885E-06     20.8725E-06     999.993E-03     801.262E-09     8.25453E-06     21.6715E-06
             564              0.              0.              0.              0.     963.765E-06     17.5348E-06     116.786E-06     956.502E-06     100.030E-06     100.030E-06    -49.2144E-06    -49.8160E-06    -49.4962E-06    -49.5342E-06     100.030E-06     1.26153E-09     2.58790E-09     4.89637E-09     100.030E-06     100.030E-06    -49.2144E-06    -49.8160E-06    -49.4962E-06    -49.5342E-06     100.030E-06     1.26153E-09     2.58790E-09     4.89637E-09         1.00031         1.00000         1.00000     1.71082E-03    -2.31333E-03         1.00231    -333.133E-03         1.00028    -174.151E-06    -428.324E-06         1.00000     4.21916E-06     8.65518E-06     16.3758E-06
             565              0.              0.              0.              0.     863.515E-06     32.5805E-06    -131.351E-06     852.844E-06     99.9567E-06     99.9567E-06    -49.1430E-06    -49.8129E-06    -49.4858E-06    -49.4700E-06     99.9567E-06     3.68165E-09     19.3031E-09    -14.8193E-09     99.9567E-06     99.9567E-06    -49.1430E-06    -49.8129E-06    -49.4858E-06    -49.4700E-06     99.9567E-06     3.68165E-09     19.3031E-09    -14.8193E-09     999.577E-03         1.00000         1.00000     2.68161E-03    -1.79962E-03         1.00180    -333.629E-03     999.534E-03     388.067E-06     493.986E-06         1.00000     12.3132E-06     64.5589E-06    -49.5629E-06
             566              0.              0.              0.              0.     858.611E-06     32.0791E-06    -66.8257E-06     855.405E-06     99.9850E-06     99.9850E-06    -49.1600E-06    -49.8248E-06    -49.4854E-06    -49.4994E-06     99.9850E-06     2.90890E-09     20.0513E-09    -27.3752E-09     99.9850E-06     99.9850E-06    -49.1600E-06    -49.8248E-06    -49.4854E-06    -49.4994E-06     99.9850E-06     2.90890E-09     20.0513E-09    -27.3752E-09     999.863E-03     999.961E-03     999.961E-03     2.33651E-03    -2.11076E-03         1.00207    -333.396E-03     999.820E-03     159.529E-06     66.2800E-06     999.961E-03     9.72877E-06     67.0612E-06    -91.5558E-06
             567              0.              0.              0.              0.     855.360E-06     32.0497E-06    -32.0497E-06     854.158E-06     99.9690E-06     99.9690E-06    -49.1554E-06    -49.8135E-06    -49.4845E-06    -49.4845E-06     99.9690E-06     1.06808E-09     19.9655E-09    -19.9655E-09     99.9690E-06     99.9690E-06    -49.1554E-06    -49.8135E-06    -49.4845E-06    -49.4845E-06     99.9690E-06     1.06808E-09     19.9655E-09    -19.9655E-09     999.703E-03     999.824E-03     999.824E-03     2.33590E-03    -2.06613E-03         1.00189    -333.364E-03     999.660E-03     134.903E-06     134.903E-06     999.824E-03     3.57218E-06     66.7744E-06    -66.7744E-06
             568              0.              0.              0.              0.     855.360E-06     32.0497E-06     32.0497E-06     854.158E-06     99.9690E-06     99.9690E-06    -49.1554E-06    -49.8135E-06    -49.4845E-06    -49.4845E-06     99.9690E-06    -1.06808E-09     19.9655E-09     19.9655E-09     99.9690E-06     99.9690E-06    -49.1554E-06    -49.8135E-06    -49.4845E-06    -49.4845E-06     99.9690E-06    -1.06808E-09     19.9655E-09     19.9655E-09     999.703E-03     999.824E-03     999.824E-03     2.33590E-03    -2.06613E-03         1.00189    -333.364E-03     999.660E-03     134.903E-06     134.903E-06     999.824E-03    -3.57218E-06     66.7744E-06     66.7744E-06
             569              0.              0.              0.              0.     858.611E-06     32.0791E-06     66.8257E-06     855.405E-06     99.9850E-06     99.9850E-06    -49.1600E-06    -49.8248E-06    -49.4854E-06    -49.4994E-06     99.9850E-06    -2.90890E-09     20.0513E-09     27.3752E-09     99.9850E-06     99.9850E-06    -49.1600E-06    -49.8248E-06    -49.4854E-06    -49.4994E-06     99.9850E-06    -2.90890E-09     20.0513E-09     27.3752E-09     999.863E-03     999.961E-03     999.961E-03     2.33651E-03    -2.11076E-03         1.00207    -333.396E-03     999.820E-03     159.529E-06     66.2800E-06     999.961E-03    -9.72877E-06     67.0612E-06     91.5558E-06
             570              0.              0.              0.              0.     863.515E-06     32.5805E-06     131.351E-06     852.844E-06     99.9567E-06     99.9567E-06    -49.1430E-06    -49.8129E-06    -49.4858E-06    -49.4700E-06     99.9567E-06    -3.68165E-09     19.3031E-09     14.8193E-09     99.9567E-06     99.9567E-06    -49.1430E-06    -49.8129E-06    -49.4858E-06    -49.4700E-06     99.9567E-06    -3.68165E-09     19.3031E-09     14.8193E-09     999.577E-03         1.00000         1.00000     2.68161E-03    -1.79962E-03         1.00180    -333.629E-03     999.534E-03     388.067E-06     493.986E-06         1.00000    -12.3132E-06     64.5589E-06     49.5629E-06
             571              0.              0.              0.              0.     765.872E-06     16.1901E-06    -115.376E-06     756.959E-06     100.032E-06     100.032E-06    -49.1389E-06    -49.8929E-06    -49.4818E-06    -49.5500E-06     100.032E-06     5.17109E-09     14.2720E-09    -65.2705E-09     100.032E-06     100.032E-06    -49.1389E-06    -49.8929E-06    -49.4818E-06    -49.5500E-06     100.032E-06     5.17109E-09     14.2720E-09    -65.2705E-09         1.00034         1.00015         1.00015     2.34936E-03    -2.69387E-03         1.00284    -333.267E-03         1.00028     55.8605E-06    -400.223E-06         1.00015     17.2946E-06     47.7325E-06    -218.296E-06
             572              0.              0.              0.              0.     758.760E-06     16.6886E-06    -82.3059E-06     754.098E-06     99.9696E-06     99.9696E-06    -49.1065E-06    -49.8630E-06    -49.4797E-06    -49.4898E-06     99.9696E-06     7.37007E-09     14.7229E-09    -50.6428E-09     99.9696E-06     99.9696E-06    -49.1065E-06    -49.8630E-06    -49.4797E-06    -49.4898E-06     99.9696E-06     7.37007E-09     14.7229E-09    -50.6428E-09     999.713E-03     999.843E-03     999.843E-03     2.67883E-03    -2.38132E-03         1.00222    -333.380E-03     999.657E-03     182.420E-06     115.194E-06     999.843E-03     24.6491E-06     49.2403E-06    -169.374E-06
             573              0.              0.              0.              0.     755.937E-06     16.7320E-06    -16.7320E-06     755.567E-06     99.9501E-06     99.9501E-06    -49.0984E-06    -49.8520E-06    -49.4752E-06    -49.4752E-06     99.9501E-06     4.78452E-09     18.0075E-09    -18.0075E-09     99.9501E-06     99.9501E-06    -49.0984E-06    -49.8520E-06    -49.4752E-06    -49.4752E-06     99.9501E-06     4.78452E-09     18.0075E-09    -18.0075E-09     999.519E-03     999.564E-03     999.564E-03     2.58474E-03    -2.45619E-03         1.00202    -333.231E-03     999.462E-03     64.2922E-06     64.2922E-06     999.564E-03     16.0017E-06     60.2259E-06    -60.2259E-06
             574              0.              0.              0.              0.     755.937E-06     16.7320E-06     16.7320E-06     755.567E-06     99.9501E-06     99.9501E-06    -49.0984E-06    -49.8520E-06    -49.4752E-06    -49.4752E-06     99.9501E-06    -4.78452E-09     18.0075E-09     18.0075E-09     99.9501E-06     99.9501E-06    -49.0984E-06    -49.8520E-06    -49.4752E-06    -49.4752E-06     99.9501E-06    -4.78452E-09     18.0075E-09     18.0075E-09     999.519E-03     999.564E-03     999.564E-03     2.58474E-03    -2.45619E-03         1.00202    -333.231E-03     999.462E-03     64.2922E-06     64.2922E-06     999.564E-03    -16.0017E-06     60.2259E-06     60.2259E-06
             575              0.              0.              0.              0.     758.760E-06     16.6886E-06     82.3059E-06     754.098E-06     99.9696E-06     99.9696E-06    -49.1065E-06    -49.8630E-06    -49.4797E-06    -49.4898E-06     99.9696E-06    -7.37007E-09     14.7229E-09     50.6428E-09     99.9696E-06     99.9696E-06    -49.1065E-06    -49.8630E-06    -49.4797E-06    -49.4898E-06     99.9696E-06    -7.37007E-09     14.7229E-09     50.6428E-09     999.713E-03     999.843E-03     999.843E-03     2.67883E-03    -2.38132E-03         1.00222    -333.380E-03     999.657E-03     182.420E-06     115.194E-06     999.843E-03    -24.6491E-06     49.2403E-06     169.374E-06
             576              0.              0.              0.              0.     765.872E-06     16.1901E-06     115.376E-06     756.959E-06     100.032E-06     100.032E-06    -49.1389E-06    -49.8929E-06    -49.4818E-06    -49.5500E-06     100.032E-06    -5.17109E-09     14.2720E-09     65.2705E-09     100.032E-06     100.032E-06    -49.1389E-06    -49.8929E-06    -49.4818E-06    -49.5500E-06     100.032E-06    -5.17109E-09     14.2720E-09     65.2705E-09         1.00034         1.00015         1.00015     2.34936E-03    -2.69387E-03         1.00284    -333.267E-03         1.00028     55.8605E-06    -400.223E-06         1.00015    -17.2946E-06     47.7325E-06     218.296E-06
             577              0.              0.              0.              0.     666.557E-06     34.0714E-06    -132.845E-06     652.296E-06     99.9984E-06     99.9984E-06    -49.0645E-06    -49.9331E-06    -49.4868E-06    -49.5107E-06     99.9983E-06     24.5282E-09     41.6259E-09    -13.6221E-09     99.9984E-06     99.9984E-06    -49.0645E-06    -49.9331E-06    -49.4868E-06    -49.5107E-06     99.9983E-06     24.5282E-09     41.6259E-09    -13.6221E-09         1.00000         1.00024         1.00024     3.16287E-03    -2.64726E-03         1.00289    -333.585E-03     999.936E-03     338.033E-06     177.913E-06         1.00024     82.0340E-06     139.217E-06    -45.5587E-06
             578              0.              0.              0.              0.     659.762E-06     33.6069E-06    -65.3102E-06     655.661E-06     100.004E-06     100.004E-06    -49.0574E-06    -49.9468E-06    -49.4777E-06    -49.5265E-06     100.004E-06     32.4024E-09     54.3377E-09    -86.3839E-09     100.004E-06     100.004E-06    -49.0574E-06    -49.9468E-06    -49.4777E-06    -49.5265E-06     100.004E-06     32.4024E-09     54.3377E-09    -86.3839E-09         1.00006     999.801E-03     999.801E-03     2.73724E-03    -3.21202E-03         1.00301    -333.109E-03     999.990E-03    -74.1329E-06    -400.088E-06     999.800E-03     108.369E-06     181.732E-06    -288.909E-06
             579              0.              0.              0.              0.     655.809E-06     33.5209E-06    -33.5209E-06     654.093E-06     99.9157E-06     99.9157E-06    -49.0136E-06    -49.9036E-06    -49.4586E-06    -49.4586E-06     99.9156E-06     20.1383E-09     79.5729E-09    -79.5729E-09     99.9157E-06     99.9157E-06    -49.0136E-06    -49.9036E-06    -49.4586E-06    -49.4586E-06     99.9156E-06     20.1383E-09     79.5729E-09    -79.5729E-09     999.185E-03     998.921E-03     998.921E-03     2.73805E-03    -3.21540E-03         1.00214    -332.814E-03     999.108E-03    -238.408E-06    -238.408E-06     998.920E-03     67.3523E-06     266.130E-06    -266.130E-06
             580              0.              0.              0.              0.     655.809E-06     33.5209E-06     33.5209E-06     654.093E-06     99.9157E-06     99.9157E-06    -49.0136E-06    -49.9036E-06    -49.4586E-06    -49.4586E-06     99.9156E-06    -20.1383E-09     79.5729E-09     79.5729E-09     99.9157E-06     99.9157E-06    -49.0136E-06    -49.9036E-06    -49.4586E-06    -49.4586E-06     99.9156E-06    -20.1383E-09     79.5729E-09     79.5729E-09     999.185E-03     998.921E-03     998.921E-03     2.73805E-03    -3.21540E-03         1.00214    -332.814E-03     999.108E-03    -238.408E-06    -238.408E-06     998.920E-03    -67.3523E-06     266.130E-06     266.130E-06
             581              0.              0.              0.              0.     659.762E-06     33.6069E-06     65.3102E-06     655.661E-06     100.004E-06     100.004E-06    -49.0574E-06    -49.9468E-06    -49.4777E-06    -49.5265E-06     100.004E-06    -32.4024E-09     54.3377E-09     86.3839E-09     100.004E-06     100.004E-06    -49.0574E-06    -49.9468E-06    -49.4777E-06    -49.5265E-06     100.004E-06    -32.4024E-09     54.3377E-09     86.3839E-09         1.00006     999.801E-03     999.801E-03     2.73724E-03    -3.21202E-03         1.00301    -333.109E-03     999.990E-03    -74.1329E-06    -400.088E-06     999.800E-03    -108.369E-06     181.732E-06     288.909E-06
             582              0.              0.              0.              0.     666.557E-06     34.0714E-06     132.845E-06     652.296E-06     99.9984E-06     99.9984E-06    -49.0645E-06    -49.9331E-06    -49.4868E-06    -49.5107E-06     99.9983E-06    -24.5282E-09     41.6259E-09     13.6221E-09     99.9984E-06     99.9984E-06    -49.0645E-06    -49.9331E-06    -49.4868E-06    -49.5107E-06     99.9983E-06    -24.5282E-09     41.6259E-09     13.6221E-09         1.00000         1.00024         1.00024     3.16287E-03    -2.64726E-03         1.00289    -333.585E-03     999.936E-03     338.033E-06     177.913E-06         1.00024    -82.0340E-06     139.217E-06     45.5587E-06
             583              0.              0.              0.              0.     569.165E-06     14.5059E-06    -113.845E-06     557.474E-06     100.146E-06     100.146E-06    -49.0608E-06    -50.0867E-06    -49.6408E-06    -49.5065E-06     100.146E-06     41.8533E-09    -118.962E-09     9.51617E-09     100.146E-06     100.146E-06    -49.0608E-06    -50.0867E-06    -49.6408E-06    -49.5065E-06     100.146E-06     41.8533E-09    -118.962E-09     9.51617E-09         1.00150         1.00049         1.00049     2.45293E-03    -4.40970E-03         1.00490    -332.845E-03         1.00142    -1.42705E-03    -528.216E-06         1.00049     139.978E-06    -397.866E-06     31.8267E-06
             584              0.              0.              0.              0.     560.387E-06     14.9225E-06    -83.9367E-06     553.864E-06     100.121E-06     100.121E-06    -49.0241E-06    -50.0994E-06    -49.6321E-06    -49.4908E-06     100.120E-06     37.4112E-09    -124.299E-09     145.583E-09     100.121E-06     100.121E-06    -49.0241E-06    -50.0994E-06    -49.6321E-06    -49.4908E-06     100.120E-06     37.4112E-09    -124.299E-09     145.583E-09         1.00125     999.837E-03     999.837E-03     2.21402E-03    -4.97919E-03         1.00482    -332.357E-03         1.00115    -1.85293E-03    -907.992E-06     999.833E-03     125.121E-06    -415.717E-06     486.899E-06
             585              0.              0.              0.              0.     556.520E-06     14.9512E-06    -14.9512E-06     556.118E-06     100.224E-06     100.224E-06    -49.0614E-06    -50.1694E-06    -49.6150E-06    -49.6150E-06     100.223E-06     16.4845E-09    -140.825E-09     140.825E-09     100.224E-06     100.224E-06    -49.0614E-06    -50.1694E-06    -49.6150E-06    -49.6150E-06     100.223E-06     16.4845E-09    -140.825E-09     140.825E-09         1.00231     999.320E-03     999.320E-03     753.677E-06    -6.65769E-03         1.00598    -331.139E-03         1.00219    -2.94959E-03    -2.94959E-03     999.315E-03     55.1322E-06    -470.986E-06     470.986E-06
             586              0.              0.              0.              0.     556.520E-06     14.9512E-06     14.9512E-06     556.118E-06     100.224E-06     100.224E-06    -49.0614E-06    -50.1694E-06    -49.6150E-06    -49.6150E-06     100.223E-06    -16.4845E-09    -140.825E-09    -140.825E-09     100.224E-06     100.224E-06    -49.0614E-06    -50.1694E-06    -49.6150E-06    -49.6150E-06     100.223E-06    -16.4845E-09    -140.825E-09    -140.825E-09         1.00231     999.320E-03     999.320E-03     753.677E-06    -6.65769E-03         1.00598    -331.139E-03         1.00219    -2.94959E-03    -2.94959E-03     999.315E-03    -55.1322E-06    -470.986E-06    -470.986E-06
             587              0.              0.              0.              0.     560.387E-06     14.9225E-06     83.9367E-06     553.864E-06     100.121E-06     100.121E-06    -49.0241E-06    -50.0994E-06    -49.6321E-06    -49.4908E-06     100.120E-06    -37.4112E-09    -124.299E-09    -145.583E-09     100.121E-06     100.121E-06    -49.0241E-06    -50.0994E-06    -49.6321E-06    -49.4908E-06     100.120E-06    -37.4112E-09    -124.299E-09    -145.583E-09         1.00125     999.837E-03     999.837E-03     2.21402E-03    -4.97919E-03         1.00482    -332.357E-03         1.00115    -1.85293E-03    -907.992E-06     999.833E-03    -125.121E-06    -415.717E-06    -486.899E-06
             588              0.              0.              0.              0.     569.165E-06     14.5059E-06     113.845E-06     557.474E-06     100.146E-06     100.146E-06    -49.0608E-06    -50.0867E-06    -49.6408E-06    -49.5065E-06     100.146E-06    -41.8533E-09    -118.962E-09    -9.51617E-09     100.146E-06     100.146E-06    -49.0608E-06    -50.0867E-06    -49.6408E-06    -49.5065E-06     100.146E-06    -41.8533E-09    -118.962E-09    -9.51617E-09         1.00150         1.00049         1.00049     2.45293E-03    -4.40970E-03         1.00490    -332.845E-03         1.00142    -1.42705E-03    -528.216E-06         1.00049    -139.978E-06    -397.866E-06    -31.8267E-06
             589              0.              0.              0.              0.     472.325E-06     36.3284E-06    -134.804E-06     451.220E-06     100.538E-06     100.538E-06    -48.9772E-06    -50.5701E-06    -50.1641E-06    -49.3785E-06     100.533E-06    -21.9945E-09    -728.485E-09     820.582E-09     100.538E-06     100.538E-06    -48.9772E-06    -50.5701E-06    -50.1641E-06    -49.3785E-06     100.533E-06    -21.9945E-09    -728.485E-09     820.582E-09         1.00548         1.00059         1.00059     484.099E-06    -10.1705E-03         1.01076    -330.300E-03         1.00533    -7.45480E-03    -2.19969E-03         1.00056    -73.5604E-06    -2.43640E-03     2.74442E-03
             590              0.              0.              0.              0.     461.737E-06     36.0574E-06    -64.1606E-06     455.834E-06     100.804E-06     100.804E-06    -49.2472E-06    -50.5687E-06    -50.1548E-06    -49.6562E-06     100.799E-06    -2.09524E-09    -701.893E-09     1.07265E-06     100.804E-06     100.804E-06    -49.2472E-06    -50.5687E-06    -50.1548E-06    -49.6562E-06     100.799E-06    -2.09524E-09    -701.893E-09     1.07265E-06         1.00815         1.00132         1.00132    -2.36623E-03    -11.2059E-03         1.01252    -329.249E-03         1.00802    -8.43728E-03    -5.10235E-03         1.00129    -7.00749E-06    -2.34747E-03     3.58747E-03
             591              0.              0.              0.              0.     455.959E-06     36.0869E-06    -36.0869E-06     453.094E-06     101.274E-06     101.274E-06    -49.6229E-06    -50.6625E-06    -50.1411E-06    -50.1411E-06     101.271E-06     8.90203E-09    -662.361E-09     662.361E-09     101.274E-06     101.274E-06    -49.6229E-06    -50.6625E-06    -50.1411E-06    -50.1411E-06     101.271E-06     8.90203E-09    -662.361E-09     662.361E-09         1.01286         1.00471         1.00471    -4.63785E-03    -11.5914E-03         1.01630    -329.492E-03         1.01275    -8.10390E-03    -8.10390E-03         1.00468     29.7727E-06    -2.21525E-03     2.21525E-03
             592              0.              0.              0.              0.     455.959E-06     36.0869E-06     36.0869E-06     453.094E-06     101.274E-06     101.274E-06    -49.6229E-06    -50.6625E-06    -50.1411E-06    -50.1411E-06     101.271E-06    -8.90203E-09    -662.361E-09    -662.361E-09     101.274E-06     101.274E-06    -49.6229E-06    -50.6625E-06    -50.1411E-06    -50.1411E-06     101.271E-06    -8.90203E-09    -662.361E-09    -662.361E-09         1.01286         1.00471         1.00471    -4.63785E-03    -11.5914E-03         1.01630    -329.492E-03         1.01275    -8.10390E-03    -8.10390E-03         1.00468    -29.7727E-06    -2.21525E-03    -2.21525E-03
             593              0.              0.              0.              0.     461.737E-06     36.0574E-06     64.1606E-06     455.834E-06     100.804E-06     100.804E-06    -49.2472E-06    -50.5687E-06    -50.1548E-06    -49.6562E-06     100.799E-06     2.09524E-09    -701.893E-09    -1.07265E-06     100.804E-06     100.804E-06    -49.2472E-06    -50.5687E-06    -50.1548E-06    -49.6562E-06     100.799E-06     2.09524E-09    -701.893E-09    -1.07265E-06         1.00815         1.00132         1.00132    -2.36623E-03    -11.2059E-03         1.01252    -329.249E-03         1.00802    -8.43728E-03    -5.10235E-03         1.00129     7.00749E-06    -2.34747E-03    -3.58747E-03
             594              0.              0.              0.              0.     472.325E-06     36.3284E-06     134.804E-06     451.220E-06     100.538E-06     100.538E-06    -48.9772E-06    -50.5701E-06    -50.1641E-06    -49.3785E-06     100.533E-06     21.9945E-09    -728.485E-09    -820.582E-09     100.538E-06     100.538E-06    -48.9772E-06    -50.5701E-06    -50.1641E-06    -49.3785E-06     100.533E-06     21.9945E-09    -728.485E-09    -820.582E-09         1.00548         1.00059         1.00059     484.099E-06    -10.1705E-03         1.01076    -330.300E-03         1.00533    -7.45480E-03    -2.19969E-03         1.00056     73.5604E-06    -2.43640E-03    -2.74442E-03
             595              0.              0.              0.              0.     374.254E-06     13.7851E-06    -114.615E-06     356.005E-06     100.820E-06     100.820E-06    -48.6758E-06    -51.1762E-06    -51.1507E-06    -48.6718E-06     100.791E-06    -221.244E-09    -1.54685E-06     3.20852E-06     100.820E-06     100.820E-06    -48.6758E-06    -51.1762E-06    -51.1507E-06    -48.6718E-06     100.791E-06    -221.244E-09    -1.54685E-06     3.20852E-06         1.00846     994.939E-03     994.939E-03    -5.03398E-03    -21.7587E-03         1.01670    -322.715E-03         1.00809    -21.5884E-03    -5.00735E-03     994.742E-03    -739.947E-06    -5.17342E-03     10.7308E-03
             596              0.              0.              0.              0.     363.100E-06     13.7778E-06    -88.1785E-06     351.961E-06     102.121E-06     102.121E-06    -49.5724E-06    -51.5689E-06    -51.2362E-06    -49.8689E-06     102.085E-06    -323.396E-09    -1.64959E-06     3.51359E-06     102.121E-06     102.121E-06    -49.5724E-06    -51.5689E-06    -51.2362E-06    -49.8689E-06     102.085E-06    -323.396E-09    -1.64959E-06     3.51359E-06         1.02143         1.00751         1.00751    -7.15914E-03    -20.5138E-03         1.02803    -326.613E-03         1.02118    -18.2881E-03    -9.14282E-03         1.00727    -1.08159E-03    -5.51703E-03     11.7511E-03
             597              0.              0.              0.              0.     353.332E-06     13.5318E-06    -13.5318E-06     352.813E-06     103.875E-06     103.875E-06    -50.8062E-06    -52.0805E-06    -51.4280E-06    -51.4280E-06     103.844E-06    -212.774E-09    -1.90933E-06     1.90933E-06     103.875E-06     103.875E-06    -50.8062E-06    -52.0805E-06    -51.4280E-06    -51.4280E-06     103.844E-06    -212.774E-09    -1.90933E-06     1.90933E-06         1.03896         1.02207         1.02207    -12.5852E-03    -21.1093E-03         1.04318    -329.459E-03         1.03883    -16.7446E-03    -16.7446E-03         1.02187    -711.618E-06    -6.38572E-03     6.38572E-03
             598              0.              0.              0.              0.     353.332E-06     13.5318E-06     13.5318E-06     352.813E-06     103.875E-06     103.875E-06    -50.8062E-06    -52.0805E-06    -51.4280E-06    -51.4280E-06     103.844E-06     212.774E-09    -1.90933E-06    -1.90933E-06     103.875E-06     103.875E-06    -50.8062E-06    -52.0805E-06    -51.4280E-06    -51.4280E-06     103.844E-06     212.774E-09    -1.90933E-06    -1.90933E-06         1.03896         1.02207         1.02207    -12.5852E-03    -21.1093E-03         1.04318    -329.459E-03         1.03883    -16.7446E-03    -16.7446E-03         1.02187     711.618E-06    -6.38572E-03    -6.38572E-03
             599              0.              0.              0.              0.     363.100E-06     13.7778E-06     88.1785E-06     351.961E-06     102.121E-06     102.121E-06    -49.5724E-06    -51.5689E-06    -51.2362E-06    -49.8689E-06     102.085E-06     323.396E-09    -1.64959E-06    -3.51359E-06     102.121E-06     102.121E-06    -49.5724E-06    -51.5689E-06    -51.2362E-06    -49.8689E-06     102.085E-06     323.396E-09    -1.64959E-06    -3.51359E-06         1.02143         1.00751         1.00751    -7.15914E-03    -20.5138E-03         1.02803    -326.613E-03         1.02118    -18.2881E-03    -9.14282E-03         1.00727     1.08159E-03    -5.51703E-03    -11.7511E-03
             600              0.              0.              0.              0.     374.254E-06     13.7851E-06     114.615E-06     356.005E-06     100.820E-06     100.820E-06    -48.6758E-06    -51.1762E-06    -51.1507E-06    -48.6718E-06     100.791E-06     221.244E-09    -1.54685E-06    -3.20852E-06     100.820E-06     100.820E-06    -48.6758E-06    -51.1762E-06    -51.1507E-06    -48.6718E-06     100.791E-06     221.244E-09    -1.54685E-06    -3.20852E-06         1.00846     994.939E-03     994.939E-03    -5.03398E-03    -21.7587E-03         1.01670    -322.715E-03         1.00809    -21.5884E-03    -5.00735E-03     994.742E-03     739.947E-06    -5.17342E-03    -10.7308E-03
             601              0.              0.              0.              0.     290.716E-06     39.1435E-06    -138.995E-06     252.317E-06     100.632E-06     100.632E-06    -46.5590E-06    -53.1178E-06    -52.8213E-06    -46.6988E-06     100.475E-06    -1.30704E-06    -4.86532E-06     5.08595E-06     100.632E-06     100.632E-06    -46.5590E-06    -53.1178E-06    -52.8213E-06    -46.6988E-06     100.475E-06    -1.30704E-06    -4.86532E-06     5.08595E-06         1.00749     989.374E-03     989.374E-03     4.81829E-03    -39.0532E-03         1.02843    -318.380E-03         1.00448    -37.0695E-03     3.88350E-03     988.325E-03    -4.37138E-03    -16.2720E-03     17.0099E-03
             602              0.              0.              0.              0.     262.471E-06     39.0773E-06    -67.8810E-06     250.512E-06     103.684E-06     103.684E-06    -48.8538E-06    -53.8469E-06    -53.2377E-06    -49.1637E-06     103.385E-06    -1.57521E-06    -5.27796E-06     8.71885E-06     103.684E-06     103.684E-06    -48.8538E-06    -53.8469E-06    -53.2377E-06    -49.1637E-06     103.385E-06    -1.57521E-06    -5.27796E-06     8.71885E-06         1.03763         1.01929         1.01929    -1.03219E-03    -34.4308E-03         1.05372    -327.943E-03         1.03581    -30.3564E-03    -3.10494E-03         1.01729    -5.26826E-03    -17.6521E-03     29.1600E-03
             603              0.              0.              0.              0.     250.098E-06     40.7261E-06    -40.7261E-06     243.376E-06     109.577E-06     109.577E-06    -52.9463E-06    -55.5888E-06    -54.1151E-06    -54.1151E-06     109.272E-06    -921.688E-09    -6.17587E-06     6.17587E-06     109.577E-06     109.577E-06    -52.9463E-06    -55.5888E-06    -54.1151E-06    -54.1151E-06     109.272E-06    -921.688E-09    -6.17587E-06     6.17587E-06         1.09611         1.07784         1.07784    -9.27247E-03    -26.9478E-03         1.10479    -347.206E-03         1.09563    -17.0902E-03    -17.0902E-03         1.07580    -3.08257E-03    -20.6551E-03     20.6551E-03
             604              0.              0.              0.              0.     250.098E-06     40.7261E-06     40.7261E-06     243.376E-06     109.577E-06     109.577E-06    -52.9463E-06    -55.5888E-06    -54.1151E-06    -54.1151E-06     109.272E-06     921.688E-09    -6.17587E-06    -6.17587E-06     109.577E-06     109.577E-06    -52.9463E-06    -55.5888E-06    -54.1151E-06    -54.1151E-06     109.272E-06     921.688E-09    -6.17587E-06    -6.17587E-06         1.09611         1.07784         1.07784    -9.27247E-03    -26.9478E-03         1.10479    -347.206E-03         1.09563    -17.0902E-03    -17.0902E-03         1.07580     3.08257E-03    -20.6551E-03    -20.6551E-03
             605              0.              0.              0.              0.     262.471E-06     39.0773E-06     67.8810E-06     250.512E-06     103.684E-06     103.684E-06    -48.8538E-06    -53.8469E-06    -53.2377E-06    -49.1637E-06     103.385E-06     1.57521E-06    -5.27796E-06    -8.71885E-06     103.684E-06     103.684E-06    -48.8538E-06    -53.8469E-06    -53.2377E-06    -49.1637E-06     103.385E-06     1.57521E-06    -5.27796E-06    -8.71885E-06         1.03763         1.01929         1.01929    -1.03219E-03    -34.4308E-03         1.05372    -327.943E-03         1.03581    -30.3564E-03    -3.10494E-03         1.01729     5.26826E-03    -17.6521E-03    -29.1600E-03
             606              0.              0.              0.              0.     290.716E-06     39.1435E-06     138.995E-06     252.317E-06     100.632E-06     100.632E-06    -46.5590E-06    -53.1178E-06    -52.8213E-06    -46.6988E-06     100.475E-06     1.30704E-06    -4.86532E-06    -5.08595E-06     100.632E-06     100.632E-06    -46.5590E-06    -53.1178E-06    -52.8213E-06    -46.6988E-06     100.475E-06     1.30704E-06    -4.86532E-06    -5.08595E-06         1.00749     989.374E-03     989.374E-03     4.81829E-03    -39.0532E-03         1.02843    -318.380E-03         1.00448    -37.0695E-03     3.88350E-03     988.325E-03     4.37138E-03    -16.2720E-03    -17.0099E-03
             607              0.              0.              0.              0.     190.785E-06     19.2448E-06    -116.841E-06     149.589E-06     97.2877E-06     97.2877E-06    -43.0449E-06    -53.3209E-06    -48.9710E-06    -46.9588E-06     96.8517E-06    -2.78410E-06    -152.985E-09     10.6363E-06     97.2877E-06     97.2877E-06    -43.0449E-06    -53.3209E-06    -48.9710E-06    -46.9588E-06     96.8517E-06    -2.78410E-06    -152.985E-09     10.6363E-06     975.024E-03     955.974E-03     955.974E-03     17.2940E-03    -51.4417E-03         1.00742    -307.275E-03     969.068E-03    -22.3454E-03    -8.88577E-03     953.057E-03    -9.31138E-03    -511.657E-06     35.5730E-03
             608              0.              0.              0.              0.     177.034E-06     18.1593E-06    -98.4262E-06     146.026E-06     101.929E-06     101.929E-06    -45.4721E-06    -55.3711E-06    -49.7560E-06    -50.5530E-06     101.395E-06    -3.23214E-06    -499.603E-09     6.58349E-06     101.929E-06     101.929E-06    -45.4721E-06    -55.3711E-06    -49.7560E-06    -50.5530E-06     101.395E-06    -3.23214E-06    -499.603E-09     6.58349E-06         1.02116         1.04135         1.04135     55.3870E-03    -10.8274E-03         1.05218    -361.969E-03         1.01483     26.7320E-03     21.4010E-03         1.03777    -10.8098E-03    -1.67091E-03     22.0184E-03
             609              0.              0.              0.              0.     125.129E-06     19.2565E-06    -19.2565E-06     122.130E-06     104.645E-06     104.645E-06    -47.7315E-06    -55.6182E-06    -51.4610E-06    -51.4610E-06     104.217E-06    -1.84009E-06    -1.26533E-06     1.26533E-06     104.645E-06     104.645E-06    -47.7315E-06    -55.6182E-06    -51.4610E-06    -51.4610E-06     104.217E-06    -1.84009E-06    -1.26533E-06     1.26533E-06         1.04765         1.12875         1.12875     109.513E-03     56.7590E-03         1.07199    -431.675E-03         1.04148     84.5666E-03     84.5666E-03         1.12589    -6.15414E-03    -4.23186E-03     4.23186E-03
             610              0.              0.              0.              0.     125.129E-06     19.2565E-06     19.2565E-06     122.130E-06     104.645E-06     104.645E-06    -47.7315E-06    -55.6182E-06    -51.4610E-06    -51.4610E-06     104.217E-06     1.84009E-06    -1.26533E-06    -1.26533E-06     104.645E-06     104.645E-06    -47.7315E-06    -55.6182E-06    -51.4610E-06    -51.4610E-06     104.217E-06     1.84009E-06    -1.26533E-06    -1.26533E-06         1.04765         1.12875         1.12875     109.513E-03     56.7590E-03         1.07199    -431.675E-03         1.04148     84.5666E-03     84.5666E-03         1.12589     6.15414E-03    -4.23186E-03    -4.23186E-03
             611              0.              0.              0.              0.     177.034E-06     18.1593E-06     98.4262E-06     146.026E-06     101.929E-06     101.929E-06    -45.4721E-06    -55.3711E-06    -49.7560E-06    -50.5530E-06     101.395E-06     3.23214E-06    -499.603E-09    -6.58349E-06     101.929E-06     101.929E-06    -45.4721E-06    -55.3711E-06    -49.7560E-06    -50.5530E-06     101.395E-06     3.23214E-06    -499.603E-09    -6.58349E-06         1.02116         1.04135         1.04135     55.3870E-03    -10.8274E-03         1.05218    -361.969E-03         1.01483     26.7320E-03     21.4010E-03         1.03777     10.8098E-03    -1.67091E-03    -22.0184E-03
             612              0.              0.              0.              0.     190.785E-06     19.2448E-06     116.841E-06     149.589E-06     97.2877E-06     97.2877E-06    -43.0449E-06    -53.3209E-06    -48.9710E-06    -46.9588E-06     96.8517E-06     2.78410E-06    -152.985E-09    -10.6363E-06     97.2877E-06     97.2877E-06    -43.0449E-06    -53.3209E-06    -48.9710E-06    -46.9588E-06     96.8517E-06     2.78410E-06    -152.985E-09    -10.6363E-06     975.024E-03     955.974E-03     955.974E-03     17.2940E-03    -51.4417E-03         1.00742    -307.275E-03     969.068E-03    -22.3454E-03    -8.88577E-03     953.057E-03     9.31138E-03    -511.657E-06    -35.5730E-03
             613              0.              0.              0.              0.     162.277E-06     19.3686E-06    -135.832E-06     86.6511E-06     82.9940E-06     82.9940E-06    -29.9548E-06    -51.6822E-06    -30.2576E-06    -44.9517E-06     76.5663E-06    -2.39118E-06     12.7751E-06    -25.8901E-06     82.9940E-06     82.9940E-06    -29.9548E-06    -51.6822E-06    -30.2576E-06    -44.9517E-06     76.5663E-06    -2.39118E-06     12.7751E-06    -25.8901E-06     841.997E-03         1.00446         1.00446     248.952E-03     103.617E-03     900.845E-03    -452.344E-03     797.875E-03     246.926E-03     148.638E-03     961.467E-03    -7.99727E-03     42.7262E-03    -86.5891E-03
             614              0.              0.              0.              0.     67.0737E-06     17.1167E-06    -55.0860E-06     34.2262E-06     78.9183E-06     78.9183E-06    -30.6571E-06    -46.6855E-06    -30.9660E-06    -40.6714E-06     73.2132E-06    -3.00052E-06     12.9596E-06    -26.3690E-06     78.9183E-06     78.9183E-06    -30.6571E-06    -46.6855E-06    -30.9660E-06    -40.6714E-06     73.2132E-06    -3.00052E-06     12.9596E-06    -26.3690E-06     794.854E-03         1.04964         1.04964     316.691E-03     209.478E-03     840.159E-03    -525.269E-03     768.577E-03     314.625E-03     249.706E-03         1.01148    -10.0352E-03     43.3431E-03    -88.1907E-03
             615              0.              0.              0.              0.     50.7510E-06     19.9896E-06    -19.9896E-06     42.1485E-06     70.3430E-06     70.3430E-06    -30.0609E-06    -38.4797E-06    -32.5768E-06    -32.5768E-06     66.9560E-06    -1.80493E-06     13.4240E-06    -13.4240E-06     70.3430E-06     70.3430E-06    -30.0609E-06    -38.4797E-06    -32.5768E-06    -32.5768E-06     66.9560E-06    -1.80493E-06     13.4240E-06    -13.4240E-06     702.193E-03         1.06730         1.06730     395.697E-03     339.385E-03     727.911E-03    -600.792E-03     694.801E-03     378.869E-03     378.869E-03         1.04464    -6.03655E-03     44.8962E-03    -44.8962E-03
             616              0.              0.              0.              0.     50.7510E-06     19.9896E-06     19.9896E-06     42.1485E-06     70.3430E-06     70.3430E-06    -30.0609E-06    -38.4797E-06    -32.5768E-06    -32.5768E-06     66.9560E-06     1.80493E-06     13.4240E-06     13.4240E-06     70.3430E-06     70.3430E-06    -30.0609E-06    -38.4797E-06    -32.5768E-06    -32.5768E-06     66.9560E-06     1.80493E-06     13.4240E-06     13.4240E-06     702.193E-03         1.06730         1.06730     395.697E-03     339.385E-03     727.911E-03    -600.792E-03     694.801E-03     378.869E-03     378.869E-03         1.04464     6.03655E-03     44.8962E-03     44.8962E-03
             617              0.              0.              0.              0.     67.0737E-06     17.1167E-06     55.0860E-06     34.2262E-06     78.9183E-06     78.9183E-06    -30.6571E-06    -46.6855E-06    -30.9660E-06    -40.6714E-06     73.2132E-06     3.00052E-06     12.9596E-06     26.3690E-06     78.9183E-06     78.9183E-06    -30.6571E-06    -46.6855E-06    -30.9660E-06    -40.6714E-06     73.2132E-06     3.00052E-06     12.9596E-06     26.3690E-06     794.854E-03         1.04964         1.04964     316.691E-03     209.478E-03     840.159E-03    -525.269E-03     768.577E-03     314.625E-03     249.706E-03         1.01148     10.0352E-03     43.3431E-03     88.1907E-03
             618              0.              0.              0.              0.     162.277E-06     19.3686E-06     135.832E-06     86.6511E-06     82.9940E-06     82.9940E-06    -29.9548E-06    -51.6822E-06    -30.2576E-06    -44.9517E-06     76.5663E-06     2.39118E-06     12.7751E-06     25.8901E-06     82.9940E-06     82.9940E-06    -29.9548E-06    -51.6822E-06    -30.2576E-06    -44.9517E-06     76.5663E-06     2.39118E-06     12.7751E-06     25.8901E-06     841.997E-03         1.00446         1.00446     248.952E-03     103.617E-03     900.845E-03    -452.344E-03     797.875E-03     246.926E-03     148.638E-03     961.467E-03     7.99727E-03     42.7262E-03     86.5891E-03
             619     649.911E-03    -23.0482E-03     281.279E-03    -585.435E-03              0.     23.0482E-39    -281.279E-39     585.435E-39     71.0558E-06     71.0558E-06    -18.0636E-06    -51.1468E-06    -16.4500E-06    -40.5131E-06     58.8085E-06    -1.46041E-06     18.0802E-06    -67.5963E-06     71.0558E-06     71.0558E-06    -18.0636E-06    -51.1468E-06    -16.4500E-06    -40.5131E-06     58.8085E-06    -1.46041E-06     18.0802E-06    -67.5963E-06     732.286E-03         1.08631         1.08631     490.197E-03     268.905E-03     817.409E-03    -615.139E-03     650.419E-03     500.991E-03     340.033E-03         1.00439    -4.88431E-03     60.4688E-03    -226.075E-03
             620     910.686E-03    -50.2461E-03     291.926E-03    -861.164E-03              0.     50.2461E-39    -291.926E-39     861.164E-39     58.5110E-06     58.5110E-06    -18.4162E-06    -38.1270E-06    -16.9432E-06    -28.7235E-06     47.6344E-06    -2.06279E-06     18.6218E-06    -53.7546E-06     58.5110E-06     58.5110E-06    -18.4162E-06    -38.1270E-06    -16.9432E-06    -28.7235E-06     47.6344E-06    -2.06279E-06     18.6218E-06    -53.7546E-06     593.990E-03         1.04291         1.04291     528.344E-03     396.499E-03     646.408E-03    -655.917E-03     550.816E-03     538.197E-03     459.399E-03     970.154E-03    -6.89896E-03     62.2803E-03    -179.781E-03
             621     825.650E-03    -60.7500E-03     60.7500E-03    -821.168E-03              0.     60.7500E-39    -60.7500E-39     821.168E-39     44.7861E-06     44.7861E-06    -19.0201E-06    -23.6571E-06    -18.1026E-06    -18.1026E-06     38.3141E-06    -1.33258E-06     19.9564E-06    -19.9564E-06     44.7861E-06     44.7861E-06    -19.0201E-06    -23.6571E-06    -18.1026E-06    -18.1026E-06     38.3141E-06    -1.33258E-06     19.9564E-06    -19.9564E-06     443.374E-03     997.830E-03     997.830E-03     571.033E-03     540.016E-03     457.815E-03    -702.960E-03     440.154E-03     577.170E-03     577.170E-03     954.539E-03    -4.45681E-03     66.7440E-03    -66.7440E-03
             622     825.650E-03    -60.7500E-03    -60.7500E-03    -821.168E-03              0.     60.7500E-39     60.7500E-39     821.168E-39     44.7861E-06     44.7861E-06    -19.0201E-06    -23.6571E-06    -18.1026E-06    -18.1026E-06     38.3141E-06     1.33258E-06     19.9564E-06     19.9564E-06     44.7861E-06     44.7861E-06    -19.0201E-06    -23.6571E-06    -18.1026E-06    -18.1026E-06     38.3141E-06     1.33258E-06     19.9564E-06     19.9564E-06     443.374E-03     997.830E-03     997.830E-03     571.033E-03     540.016E-03     457.815E-03    -702.960E-03     440.154E-03     577.170E-03     577.170E-03     954.539E-03     4.45681E-03     66.7440E-03     66.7440E-03
             623     910.686E-03    -50.2461E-03    -291.926E-03    -861.164E-03              0.     50.2461E-39     291.926E-39     861.164E-39     58.5110E-06     58.5110E-06    -18.4162E-06    -38.1270E-06    -16.9432E-06    -28.7235E-06     47.6344E-06     2.06279E-06     18.6218E-06     53.7546E-06     58.5110E-06     58.5110E-06    -18.4162E-06    -38.1270E-06    -16.9432E-06    -28.7235E-06     47.6344E-06     2.06279E-06     18.6218E-06     53.7546E-06     593.990E-03         1.04291         1.04291     528.344E-03     396.499E-03     646.408E-03    -655.917E-03     550.816E-03     538.197E-03     459.399E-03     970.154E-03     6.89896E-03     62.2803E-03     179.781E-03
             624     649.911E-03    -23.0482E-03    -281.279E-03    -585.435E-03              0.     23.0482E-39     281.279E-39     585.435E-39     71.0558E-06     71.0558E-06    -18.0636E-06    -51.1468E-06    -16.4500E-06    -40.5131E-06     58.8085E-06     1.46041E-06     18.0802E-06     67.5963E-06     71.0558E-06     71.0558E-06    -18.0636E-06    -51.1468E-06    -16.4500E-06    -40.5131E-06     58.8085E-06     1.46041E-06     18.0802E-06     67.5963E-06     732.286E-03         1.08631         1.08631     490.197E-03     268.905E-03     817.409E-03    -615.139E-03     650.419E-03     500.991E-03     340.033E-03         1.00439     4.88431E-03     60.4688E-03     226.075E-03
             625              0.              0.              0.              0.     2.45896E-03     70.8113E-06    -126.737E-06     2.45467E-03     99.9856E-06     99.9856E-06    -49.4841E-06    -49.5013E-06    -49.5003E-06    -49.4851E-06     99.9856E-06     1.71283E-09     4.55240E-09    -1.21713E-09     99.9856E-06     99.9856E-06    -49.4841E-06    -49.5013E-06    -49.5003E-06    -49.4851E-06     99.9856E-06     1.71283E-09     4.55240E-09    -1.21713E-09     999.854E-03     999.987E-03     999.987E-03     190.182E-06     75.2598E-06     999.912E-03    -333.418E-03     999.854E-03     81.9109E-06     183.533E-06     999.987E-03     5.72854E-06     15.2254E-06    -4.07067E-06
             626              0.              0.              0.              0.     2.45689E-03     71.2368E-06    -71.2368E-06     2.45482E-03     99.9998E-06     99.9998E-06    -49.4916E-06    -49.5082E-06    -49.4999E-06    -49.4999E-06     99.9998E-06     1.15181E-09     888.114E-12    -888.114E-12     99.9998E-06     99.9998E-06    -49.4916E-06    -49.5082E-06    -49.4999E-06    -49.4999E-06     99.9998E-06     1.15181E-09     888.114E-12    -888.114E-12     999.998E-03     999.992E-03     999.992E-03     49.2233E-06    -61.9458E-06         1.00005    -333.326E-03     999.998E-03    -6.36058E-06    -6.36058E-06     999.992E-03     3.85221E-06     2.97028E-06    -2.97028E-06
             627              0.              0.              0.              0.     2.45594E-03     71.2433E-06    -27.7713E-06     2.45475E-03     100.000E-06     100.000E-06    -49.4925E-06    -49.5076E-06    -49.4998E-06    -49.5003E-06     100.000E-06     295.394E-12     88.2628E-12    -279.548E-12     100.000E-06     100.000E-06    -49.4925E-06    -49.5076E-06    -49.4998E-06    -49.5003E-06     100.000E-06     295.394E-12     88.2628E-12    -279.548E-12         1.00000         1.00000         1.00000     50.2445E-06    -50.6082E-06         1.00005    -333.334E-03         1.00000     1.65165E-06    -2.01477E-06         1.00000     987.941E-09     295.193E-09    -934.944E-09
             628              0.              0.              0.              0.     2.45594E-03     71.2433E-06     27.7713E-06     2.45475E-03     100.000E-06     100.000E-06    -49.4925E-06    -49.5076E-06    -49.4998E-06    -49.5003E-06     100.000E-06    -295.394E-12     88.2628E-12     279.548E-12     100.000E-06     100.000E-06    -49.4925E-06    -49.5076E-06    -49.4998E-06    -49.5003E-06     100.000E-06    -295.394E-12     88.2628E-12     279.548E-12         1.00000         1.00000         1.00000     50.2445E-06    -50.6082E-06         1.00005    -333.334E-03         1.00000     1.65165E-06    -2.01477E-06         1.00000    -987.940E-09     295.193E-09     934.944E-09
             629              0.              0.              0.              0.     2.45689E-03     71.2368E-06     71.2368E-06     2.45482E-03     99.9998E-06     99.9998E-06    -49.4916E-06    -49.5082E-06    -49.4999E-06    -49.4999E-06     99.9998E-06    -1.15181E-09     888.114E-12     888.114E-12     99.9998E-06     99.9998E-06    -49.4916E-06    -49.5082E-06    -49.4999E-06    -49.4999E-06     99.9998E-06    -1.15181E-09     888.114E-12     888.114E-12     999.998E-03     999.992E-03     999.992E-03     49.2233E-06    -61.9458E-06         1.00005    -333.326E-03     999.998E-03    -6.36058E-06    -6.36058E-06     999.992E-03    -3.85221E-06     2.97028E-06     2.97028E-06
             630              0.              0.              0.              0.     2.45896E-03     70.8113E-06     126.737E-06     2.45467E-03     99.9856E-06     99.9856E-06    -49.4841E-06    -49.5013E-06    -49.5003E-06    -49.4851E-06     99.9856E-06    -1.71283E-09     4.55240E-09     1.21713E-09     99.9856E-06     99.9856E-06    -49.4841E-06    -49.5013E-06    -49.5003E-06    -49.4851E-06     99.9856E-06    -1.71283E-09     4.55240E-09     1.21713E-09     999.854E-03     999.987E-03     999.987E-03     190.182E-06     75.2598E-06     999.912E-03    -333.418E-03     999.854E-03     81.9109E-06     183.533E-06     999.987E-03    -5.72854E-06     15.2254E-06     4.07067E-06
             631              0.              0.              0.              0.     2.35919E-03     77.6844E-06    -120.734E-06     2.35482E-03     100.014E-06     100.014E-06    -49.4908E-06    -49.5234E-06    -49.4998E-06    -49.5144E-06     100.014E-06    -538.243E-12    -1.22118E-09     233.380E-12     100.014E-06     100.014E-06    -49.4908E-06    -49.5234E-06    -49.4998E-06    -49.5144E-06     100.014E-06    -538.243E-12    -1.22118E-09     233.380E-12         1.00014     999.999E-03     999.999E-03    -32.6874E-06    -250.454E-06         1.00025    -333.239E-03         1.00014    -92.6813E-06    -190.455E-06     999.999E-03    -1.80014E-06    -4.08421E-06     780.537E-09
             632              0.              0.              0.              0.     2.35720E-03     77.2915E-06    -77.2915E-06     2.35467E-03     99.9999E-06     99.9999E-06    -49.4842E-06    -49.5157E-06    -49.5000E-06    -49.5000E-06     99.9999E-06    -117.448E-12     146.109E-12    -146.109E-12     99.9999E-06     99.9999E-06    -49.4842E-06    -49.5157E-06    -49.5000E-06    -49.5000E-06     99.9999E-06    -117.448E-12     146.109E-12    -146.109E-12     999.999E-03         1.00000         1.00000     106.787E-06    -104.413E-06         1.00010    -333.334E-03     999.999E-03     1.18886E-06     1.18886E-06         1.00000    -392.803E-09     488.659E-09    -488.659E-09
             633              0.              0.              0.              0.     2.35611E-03     77.2662E-06    -21.7031E-06     2.35475E-03     100.000E-06     100.000E-06    -49.4853E-06    -49.5148E-06    -49.5001E-06    -49.5000E-06     100.000E-06     151.673E-12     97.7209E-12    -262.800E-12     100.000E-06     100.000E-06    -49.4853E-06    -49.5148E-06    -49.5001E-06    -49.5000E-06     100.000E-06     151.673E-12     97.7209E-12    -262.800E-12         1.00000         1.00000         1.00000     98.0977E-06    -99.6729E-06         1.00010    -333.333E-03         1.00000    -1.07544E-06    -498.291E-09         1.00000     507.268E-09     326.825E-09    -878.928E-09
             634              0.              0.              0.              0.     2.35611E-03     77.2662E-06     21.7031E-06     2.35475E-03     100.000E-06     100.000E-06    -49.4853E-06    -49.5148E-06    -49.5001E-06    -49.5000E-06     100.000E-06    -151.673E-12     97.7209E-12     262.800E-12     100.000E-06     100.000E-06    -49.4853E-06    -49.5148E-06    -49.5001E-06    -49.5000E-06     100.000E-06    -151.673E-12     97.7209E-12     262.800E-12         1.00000         1.00000         1.00000     98.0977E-06    -99.6729E-06         1.00010    -333.333E-03         1.00000    -1.07544E-06    -498.291E-09         1.00000    -507.268E-09     326.825E-09     878.928E-09
             635              0.              0.              0.              0.     2.35720E-03     77.2915E-06     77.2915E-06     2.35467E-03     99.9999E-06     99.9999E-06    -49.4842E-06    -49.5157E-06    -49.5000E-06    -49.5000E-06     99.9999E-06     117.448E-12     146.109E-12     146.109E-12     99.9999E-06     99.9999E-06    -49.4842E-06    -49.5157E-06    -49.5000E-06    -49.5000E-06     99.9999E-06     117.448E-12     146.109E-12     146.109E-12     999.999E-03         1.00000         1.00000     106.787E-06    -104.413E-06         1.00010    -333.334E-03     999.999E-03     1.18886E-06     1.18886E-06         1.00000     392.803E-09     488.659E-09     488.659E-09
             636              0.              0.              0.              0.     2.35919E-03     77.6844E-06     120.734E-06     2.35482E-03     100.014E-06     100.014E-06    -49.4908E-06    -49.5234E-06    -49.4998E-06    -49.5144E-06     100.014E-06     538.243E-12    -1.22118E-09    -233.380E-12     100.014E-06     100.014E-06    -49.4908E-06    -49.5234E-06    -49.4998E-06    -49.5144E-06     100.014E-06     538.243E-12    -1.22118E-09    -233.380E-12         1.00014     999.999E-03     999.999E-03    -32.6874E-06    -250.454E-06         1.00025    -333.239E-03         1.00014    -92.6813E-06    -190.455E-06     999.999E-03     1.80014E-06    -4.08421E-06    -780.537E-09
             637              0.              0.              0.              0.     2.25939E-03     70.7736E-06    -126.817E-06     2.25472E-03     99.9858E-06     99.9858E-06    -49.4620E-06    -49.5235E-06    -49.4998E-06    -49.4857E-06     99.9858E-06    -623.659E-12    -624.293E-12     691.375E-12     99.9858E-06     99.9858E-06    -49.4620E-06    -49.5235E-06    -49.4998E-06    -49.4857E-06     99.9858E-06    -623.659E-12    -624.293E-12     691.375E-12     999.856E-03         1.00001         1.00001     355.425E-06    -56.2494E-06         1.00006    -333.435E-03     999.856E-03     102.223E-06     196.963E-06         1.00001    -2.08582E-06    -2.08794E-06     2.31229E-06
             638              0.              0.              0.              0.     2.25718E-03     71.1612E-06    -71.1612E-06     2.25493E-03     99.9998E-06     99.9998E-06    -49.4698E-06    -49.5300E-06    -49.4999E-06    -49.4999E-06     99.9998E-06    -518.208E-12    -576.545E-12     576.545E-12     99.9998E-06     99.9998E-06    -49.4698E-06    -49.5300E-06    -49.4999E-06    -49.4999E-06     99.9998E-06    -518.208E-12    -576.545E-12     576.545E-12     999.998E-03     999.999E-03     999.999E-03     203.208E-06    -199.790E-06         1.00020    -333.334E-03     999.998E-03     1.71275E-06     1.71275E-06     999.999E-03    -1.73314E-06    -1.92824E-06     1.92824E-06
             639              0.              0.              0.              0.     2.25612E-03     71.1933E-06    -27.8415E-06     2.25482E-03     99.9997E-06     99.9997E-06    -49.4708E-06    -49.5289E-06    -49.4999E-06    -49.4998E-06     99.9997E-06    -206.378E-12     102.868E-12     230.858E-12     99.9997E-06     99.9997E-06    -49.4708E-06    -49.5289E-06    -49.4999E-06    -49.4998E-06     99.9997E-06    -206.378E-12     102.868E-12     230.858E-12     999.997E-03     999.997E-03     999.997E-03     194.454E-06    -194.553E-06         1.00019    -333.332E-03     999.997E-03    -403.776E-09     308.064E-09     999.997E-03    -690.228E-09     344.039E-09     772.099E-09
             640              0.              0.              0.              0.     2.25612E-03     71.1933E-06     27.8415E-06     2.25482E-03     99.9997E-06     99.9997E-06    -49.4708E-06    -49.5289E-06    -49.4999E-06    -49.4998E-06     99.9997E-06     206.378E-12     102.868E-12    -230.858E-12     99.9997E-06     99.9997E-06    -49.4708E-06    -49.5289E-06    -49.4999E-06    -49.4998E-06     99.9997E-06     206.378E-12     102.868E-12    -230.858E-12     999.997E-03     999.997E-03     999.997E-03     194.454E-06    -194.553E-06         1.00019    -333.332E-03     999.997E-03    -403.776E-09     308.064E-09     999.997E-03     690.228E-09     344.039E-09    -772.100E-09
             641              0.              0.              0.              0.     2.25718E-03     71.1612E-06     71.1612E-06     2.25493E-03     99.9998E-06     99.9998E-06    -49.4698E-06    -49.5300E-06    -49.4999E-06    -49.4999E-06     99.9998E-06     518.208E-12    -576.545E-12    -576.545E-12     99.9998E-06     99.9998E-06    -49.4698E-06    -49.5300E-06    -49.4999E-06    -49.4999E-06     99.9998E-06     518.208E-12    -576.545E-12    -576.545E-12     999.998E-03     999.999E-03     999.999E-03     203.208E-06    -199.790E-06         1.00020    -333.334E-03     999.998E-03     1.71275E-06     1.71275E-06     999.999E-03     1.73314E-06    -1.92824E-06    -1.92824E-06
             642              0.              0.              0.              0.     2.25939E-03     70.7736E-06     126.817E-06     2.25472E-03     99.9858E-06     99.9858E-06    -49.4620E-06    -49.5235E-06    -49.4998E-06    -49.4857E-06     99.9858E-06     623.659E-12    -624.293E-12    -691.375E-12     99.9858E-06     99.9858E-06    -49.4620E-06    -49.5235E-06    -49.4998E-06    -49.4857E-06     99.9858E-06     623.659E-12    -624.293E-12    -691.375E-12     999.856E-03         1.00001         1.00001     355.425E-06    -56.2494E-06         1.00006    -333.435E-03     999.856E-03     102.223E-06     196.963E-06         1.00001     2.08582E-06    -2.08794E-06    -2.31229E-06
             643              0.              0.              0.              0.     2.15961E-03     77.8019E-06    -120.608E-06     2.15484E-03     100.015E-06     100.015E-06    -49.4631E-06    -49.5522E-06    -49.5003E-06    -49.5150E-06     100.015E-06     452.936E-12    -266.491E-12    -102.689E-12     100.015E-06     100.015E-06    -49.4631E-06    -49.5522E-06    -49.5003E-06    -49.5150E-06     100.015E-06     452.936E-12    -266.491E-12    -102.689E-12         1.00015    1000.000E-03    1000.000E-03     146.505E-06    -449.520E-06         1.00045    -333.232E-03         1.00015    -102.598E-06    -200.407E-06    1000.000E-03     1.51484E-06    -891.276E-09    -343.442E-09
             644              0.              0.              0.              0.     2.15730E-03     77.4092E-06    -77.4092E-06     2.15452E-03     100.000E-06     100.000E-06    -49.4560E-06    -49.5443E-06    -49.5002E-06    -49.5002E-06     100.000E-06     130.383E-12    -177.029E-12     177.029E-12     100.000E-06     100.000E-06    -49.4560E-06    -49.5443E-06    -49.5002E-06    -49.5002E-06     100.000E-06     130.383E-12    -177.029E-12     177.029E-12         1.00000         1.00000         1.00000     295.112E-06    -295.236E-06         1.00030    -333.334E-03         1.00000    -58.3605E-09    -58.3605E-09         1.00000     436.062E-09    -592.070E-09     592.070E-09
             645              0.              0.              0.              0.     2.15618E-03     77.3773E-06    -21.5885E-06     2.15468E-03     99.9999E-06     99.9999E-06    -49.4566E-06    -49.5433E-06    -49.5001E-06    -49.4999E-06     99.9999E-06    -96.0853E-12    -125.113E-12     228.374E-12     99.9999E-06     99.9999E-06    -49.4566E-06    -49.5433E-06    -49.5001E-06    -49.4999E-06     99.9999E-06    -96.0853E-12    -125.113E-12     228.374E-12    1000.000E-03         1.00000         1.00000     291.247E-06    -288.568E-06         1.00029    -333.334E-03     999.999E-03     665.787E-09     2.01768E-06         1.00000    -321.355E-09    -418.437E-09     763.790E-09
             646              0.              0.              0.              0.     2.15618E-03     77.3773E-06     21.5885E-06     2.15468E-03     99.9999E-06     99.9999E-06    -49.4566E-06    -49.5433E-06    -49.5001E-06    -49.4999E-06     99.9999E-06     96.0853E-12    -125.113E-12    -228.374E-12     99.9999E-06     99.9999E-06    -49.4566E-06    -49.5433E-06    -49.5001E-06    -49.4999E-06     99.9999E-06     96.0853E-12    -125.113E-12    -228.374E-12    1000.000E-03         1.00000         1.00000     291.247E-06    -288.568E-06         1.00029    -333.334E-03     999.999E-03     665.787E-09     2.01768E-06         1.00000     321.355E-09    -418.437E-09    -763.790E-09
             647              0.              0.              0.              0.     2.15730E-03     77.4092E-06     77.4092E-06     2.15452E-03     100.000E-06     100.000E-06    -49.4560E-06    -49.5443E-06    -49.5002E-06    -49.5002E-06     100.000E-06    -130.383E-12    -177.029E-12    -177.029E-12     100.000E-06     100.000E-06    -49.4560E-06    -49.5443E-06    -49.5002E-06    -49.5002E-06     100.000E-06    -130.383E-12    -177.029E-12    -177.029E-12         1.00000         1.00000         1.00000     295.112E-06    -295.236E-06         1.00030    -333.334E-03         1.00000    -58.3605E-09    -58.3605E-09         1.00000    -436.062E-09    -592.070E-09    -592.070E-09
             648              0.              0.              0.              0.     2.15961E-03     77.8019E-06     120.608E-06     2.15484E-03     100.015E-06     100.015E-06    -49.4631E-06    -49.5522E-06    -49.5003E-06    -49.5150E-06     100.015E-06    -452.936E-12    -266.491E-12     102.689E-12     100.015E-06     100.015E-06    -49.4631E-06    -49.5522E-06    -49.5003E-06    -49.5150E-06     100.015E-06    -452.936E-12    -266.491E-12     102.689E-12         1.00015    1000.000E-03    1000.000E-03     146.505E-06    -449.520E-06         1.00045    -333.232E-03         1.00015    -102.598E-06    -200.407E-06    1000.000E-03    -1.51484E-06    -891.276E-09     343.442E-09
             649              0.              0.              0.              0.     2.05980E-03     70.5896E-06    -126.993E-06     2.05467E-03     99.9846E-06     99.9846E-06    -49.4333E-06    -49.5510E-06    -49.4997E-06    -49.4846E-06     99.9846E-06    -378.492E-12     90.5442E-12     94.9507E-12     99.9846E-06     99.9846E-06    -49.4333E-06    -49.5510E-06    -49.4997E-06    -49.4846E-06     99.9846E-06    -378.492E-12     90.5442E-12     94.9507E-12     999.845E-03         1.00000         1.00000     549.131E-06    -238.197E-06         1.00024    -333.437E-03     999.844E-03     104.992E-06     205.952E-06         1.00000    -1.26586E-06     302.825E-09     317.559E-09
             650              0.              0.              0.              0.     2.05755E-03     70.9925E-06    -70.9925E-06     2.05510E-03     99.9997E-06     99.9997E-06    -49.4411E-06    -49.5586E-06    -49.4998E-06    -49.4998E-06     99.9997E-06    -91.2106E-12     25.9842E-12    -25.9842E-12     99.9997E-06     99.9997E-06    -49.4411E-06    -49.5586E-06    -49.4998E-06    -49.4998E-06     99.9997E-06    -91.2106E-12     25.9842E-12    -25.9842E-12     999.997E-03     999.997E-03     999.997E-03     392.706E-06    -392.838E-06         1.00039    -333.332E-03     999.996E-03    -62.1658E-09    -62.1658E-09     999.997E-03    -305.052E-09     86.9054E-09    -86.9054E-09
             651              0.              0.              0.              0.     2.05630E-03     71.0216E-06    -28.0087E-06     2.05488E-03     99.9999E-06     99.9999E-06    -49.4419E-06    -49.5580E-06    -49.4999E-06    -49.5000E-06     99.9999E-06     98.0356E-12    -57.8021E-12    -73.4596E-12     99.9999E-06     99.9999E-06    -49.4419E-06    -49.5580E-06    -49.4999E-06    -49.5000E-06     99.9999E-06     98.0356E-12    -57.8021E-12    -73.4596E-12    1000.000E-03     999.999E-03     999.999E-03     388.020E-06    -388.565E-06         1.00039    -333.333E-03     999.999E-03     133.950E-09    -674.976E-09     999.999E-03     327.878E-09    -193.317E-09    -245.685E-09
             652              0.              0.              0.              0.     2.05630E-03     71.0216E-06     28.0087E-06     2.05488E-03     99.9999E-06     99.9999E-06    -49.4419E-06    -49.5580E-06    -49.4999E-06    -49.5000E-06     99.9999E-06    -98.0356E-12    -57.8021E-12     73.4596E-12     99.9999E-06     99.9999E-06    -49.4419E-06    -49.5580E-06    -49.4999E-06    -49.5000E-06     99.9999E-06    -98.0356E-12    -57.8021E-12     73.4596E-12    1000.000E-03     999.999E-03     999.999E-03     388.020E-06    -388.565E-06         1.00039    -333.333E-03     999.999E-03     133.950E-09    -674.976E-09     999.999E-03    -327.878E-09    -193.317E-09     245.685E-09
             653              0.              0.              0.              0.     2.05755E-03     70.9925E-06     70.9925E-06     2.05510E-03     99.9997E-06     99.9997E-06    -49.4411E-06    -49.5586E-06    -49.4998E-06    -49.4998E-06     99.9997E-06     91.2107E-12     25.9842E-12     25.9842E-12     99.9997E-06     99.9997E-06    -49.4411E-06    -49.5586E-06    -49.4998E-06    -49.4998E-06     99.9997E-06     91.2107E-12     25.9842E-12     25.9842E-12     999.997E-03     999.997E-03     999.997E-03     392.706E-06    -392.838E-06         1.00039    -333.332E-03     999.996E-03    -62.1658E-09    -62.1658E-09     999.997E-03     305.052E-09     86.9054E-09     86.9054E-09
             654              0.              0.              0.              0.     2.05980E-03     70.5896E-06     126.993E-06     2.05467E-03     99.9846E-06     99.9846E-06    -49.4333E-06    -49.5510E-06    -49.4997E-06    -49.4846E-06     99.9846E-06     378.492E-12     90.5442E-12    -94.9507E-12     99.9846E-06     99.9846E-06    -49.4333E-06    -49.5510E-06    -49.4997E-06    -49.4846E-06     99.9846E-06     378.492E-12     90.5442E-12    -94.9507E-12     999.845E-03         1.00000         1.00000     549.131E-06    -238.197E-06         1.00024    -333.437E-03     999.844E-03     104.992E-06     205.952E-06         1.00000     1.26586E-06     302.825E-09    -317.559E-09
             655              0.              0.              0.              0.     1.96015E-03     78.0510E-06    -120.377E-06     1.95489E-03     100.016E-06     100.016E-06    -49.4338E-06    -49.5824E-06    -49.5002E-06    -49.5160E-06     100.016E-06     282.535E-12    -148.216E-12     18.0749E-12     100.016E-06     100.016E-06    -49.4338E-06    -49.5824E-06    -49.5002E-06    -49.5160E-06     100.016E-06     282.535E-12    -148.216E-12     18.0749E-12         1.00016    1000.000E-03    1000.000E-03     336.476E-06    -657.714E-06         1.00066    -333.226E-03         1.00016    -107.858E-06    -213.368E-06    1000.000E-03     944.935E-09    -495.702E-09     60.4487E-09
             656              0.              0.              0.              0.     1.95743E-03     77.6351E-06    -77.6351E-06     1.95435E-03     100.000E-06     100.000E-06    -49.4259E-06    -49.5743E-06    -49.5001E-06    -49.5001E-06     100.000E-06     60.4701E-12    -53.4289E-12     53.4289E-12     100.000E-06     100.000E-06    -49.4259E-06    -49.5743E-06    -49.5001E-06    -49.5001E-06     100.000E-06     60.4701E-12    -53.4289E-12     53.4289E-12         1.00000         1.00000         1.00000     496.942E-06    -495.576E-06         1.00050    -333.335E-03         1.00000     687.127E-09     687.127E-09         1.00000     202.241E-09    -178.691E-09     178.691E-09
             657              0.              0.              0.              0.     1.95628E-03     77.6099E-06    -21.3645E-06     1.95462E-03     100.000E-06     100.000E-06    -49.4266E-06    -49.5734E-06    -49.5001E-06    -49.4999E-06     100.000E-06    -80.7976E-12     9.31311E-12     44.3915E-12     100.000E-06     100.000E-06    -49.4266E-06    -49.5734E-06    -49.5001E-06    -49.4999E-06     100.000E-06    -80.7976E-12     9.31311E-12     44.3915E-12         1.00000         1.00000         1.00000     491.558E-06    -490.743E-06         1.00049    -333.334E-03     999.999E-03    -86.7149E-09     906.170E-09         1.00000    -270.226E-09     31.1472E-09     148.466E-09
             658              0.              0.              0.              0.     1.95628E-03     77.6099E-06     21.3645E-06     1.95462E-03     100.000E-06     100.000E-06    -49.4266E-06    -49.5734E-06    -49.5001E-06    -49.4999E-06     100.000E-06     80.7976E-12     9.31311E-12    -44.3915E-12     100.000E-06     100.000E-06    -49.4266E-06    -49.5734E-06    -49.5001E-06    -49.4999E-06     100.000E-06     80.7976E-12     9.31311E-12    -44.3915E-12         1.00000         1.00000         1.00000     491.558E-06    -490.743E-06         1.00049    -333.334E-03     999.999E-03    -86.7149E-09     906.170E-09         1.00000     270.226E-09     31.1472E-09    -148.466E-09
             659              0.              0.              0.              0.     1.95743E-03     77.6351E-06     77.6351E-06     1.95435E-03     100.000E-06     100.000E-06    -49.4259E-06    -49.5743E-06    -49.5001E-06    -49.5001E-06     100.000E-06    -60.4701E-12    -53.4289E-12    -53.4289E-12     100.000E-06     100.000E-06    -49.4259E-06    -49.5743E-06    -49.5001E-06    -49.5001E-06     100.000E-06    -60.4701E-12    -53.4289E-12    -53.4289E-12         1.00000         1.00000         1.00000     496.942E-06    -495.576E-06         1.00050    -333.335E-03         1.00000     687.127E-09     687.127E-09         1.00000    -202.241E-09    -178.691E-09    -178.691E-09
             660              0.              0.              0.              0.     1.96015E-03     78.0510E-06     120.377E-06     1.95489E-03     100.016E-06     100.016E-06    -49.4338E-06    -49.5824E-06    -49.5002E-06    -49.5160E-06     100.016E-06    -282.535E-12    -148.216E-12    -18.0749E-12     100.016E-06     100.016E-06    -49.4338E-06    -49.5824E-06    -49.5002E-06    -49.5160E-06     100.016E-06    -282.535E-12    -148.216E-12    -18.0749E-12         1.00016    1000.000E-03    1000.000E-03     336.476E-06    -657.714E-06         1.00066    -333.226E-03         1.00016    -107.858E-06    -213.368E-06    1000.000E-03    -944.935E-09    -495.702E-09    -60.4487E-09
             661              0.              0.              0.              0.     1.86031E-03     70.2752E-06    -127.283E-06     1.85462E-03     99.9834E-06     99.9834E-06    -49.4006E-06    -49.5825E-06    -49.4998E-06    -49.4833E-06     99.9834E-06    -218.996E-12     172.536E-12    -44.8872E-12     99.9834E-06     99.9834E-06    -49.4006E-06    -49.5825E-06    -49.4998E-06    -49.4833E-06     99.9834E-06    -218.996E-12     172.536E-12    -44.8872E-12     999.834E-03         1.00000         1.00000     776.024E-06    -440.481E-06         1.00044    -333.445E-03     999.830E-03     112.384E-06     223.169E-06         1.00000    -732.428E-09     577.046E-09    -150.127E-09
             662              0.              0.              0.              0.     1.85797E-03     70.7063E-06    -70.7063E-06     1.85528E-03     99.9998E-06     99.9998E-06    -49.4093E-06    -49.5905E-06    -49.4999E-06    -49.4999E-06     99.9998E-06    -50.2554E-12     32.8598E-12    -32.8598E-12     99.9998E-06     99.9998E-06    -49.4093E-06    -49.5905E-06    -49.4999E-06    -49.4999E-06     99.9998E-06    -50.2554E-12     32.8598E-12    -32.8598E-12     999.999E-03     999.997E-03     999.997E-03     605.283E-06    -606.936E-06         1.00060    -333.332E-03     999.996E-03    -822.474E-09    -822.474E-09     999.997E-03    -168.078E-09     109.900E-09    -109.900E-09
             663              0.              0.              0.              0.     1.85651E-03     70.7268E-06    -28.2932E-06     1.85494E-03     99.9999E-06     99.9999E-06    -49.4104E-06    -49.5896E-06    -49.4999E-06    -49.5000E-06     99.9999E-06     59.2427E-12    -2.32780E-12    -10.4162E-12     99.9999E-06     99.9999E-06    -49.4104E-06    -49.5896E-06    -49.4999E-06    -49.5000E-06     99.9999E-06     59.2427E-12    -2.32780E-12    -10.4162E-12         1.00000     999.999E-03     999.999E-03     599.172E-06    -599.708E-06         1.00060    -333.333E-03     999.997E-03     234.329E-09    -765.314E-09     999.999E-03     198.136E-09    -7.78573E-09    -34.8368E-09
             664              0.              0.              0.              0.     1.85651E-03     70.7268E-06     28.2932E-06     1.85494E-03     99.9999E-06     99.9999E-06    -49.4104E-06    -49.5896E-06    -49.4999E-06    -49.5000E-06     99.9999E-06    -59.2427E-12    -2.32780E-12     10.4162E-12     99.9999E-06     99.9999E-06    -49.4104E-06    -49.5896E-06    -49.4999E-06    -49.5000E-06     99.9999E-06    -59.2427E-12    -2.32780E-12     10.4162E-12         1.00000     999.999E-03     999.999E-03     599.172E-06    -599.708E-06         1.00060    -333.333E-03     999.997E-03     234.329E-09    -765.314E-09     999.999E-03    -198.136E-09    -7.78573E-09     34.8368E-09
             665              0.              0.              0.              0.     1.85797E-03     70.7063E-06     70.7063E-06     1.85528E-03     99.9998E-06     99.9998E-06    -49.4093E-06    -49.5905E-06    -49.4999E-06    -49.4999E-06     99.9998E-06     50.2554E-12     32.8598E-12     32.8598E-12     99.9998E-06     99.9998E-06    -49.4093E-06    -49.5905E-06    -49.4999E-06    -49.4999E-06     99.9998E-06     50.2554E-12     32.8598E-12     32.8598E-12     999.999E-03     999.997E-03     999.997E-03     605.283E-06    -606.936E-06         1.00060    -333.332E-03     999.996E-03    -822.474E-09    -822.474E-09     999.997E-03     168.078E-09     109.900E-09     109.900E-09
             666              0.              0.              0.              0.     1.86031E-03     70.2752E-06     127.283E-06     1.85462E-03     99.9834E-06     99.9834E-06    -49.4006E-06    -49.5825E-06    -49.4998E-06    -49.4833E-06     99.9834E-06     218.996E-12     172.536E-12     44.8872E-12     99.9834E-06     99.9834E-06    -49.4006E-06    -49.5825E-06    -49.4998E-06    -49.4833E-06     99.9834E-06     218.996E-12     172.536E-12     44.8872E-12     999.834E-03         1.00000         1.00000     776.024E-06    -440.481E-06         1.00044    -333.445E-03     999.830E-03     112.384E-06     223.169E-06         1.00000     732.428E-09     577.046E-09     150.127E-09
             667              0.              0.              0.              0.     1.76080E-03     78.4333E-06    -120.026E-06     1.75495E-03     100.017E-06     100.017E-06    -49.4006E-06    -49.6172E-06    -49.5002E-06    -49.5177E-06     100.017E-06     178.585E-12    -198.781E-12     37.0344E-12     100.017E-06     100.017E-06    -49.4006E-06    -49.6172E-06    -49.5002E-06    -49.5177E-06     100.017E-06     178.585E-12    -198.781E-12     37.0344E-12         1.00018    1000.000E-03    1000.000E-03     547.908E-06    -901.292E-06         1.00090    -333.215E-03         1.00017    -118.212E-06    -235.160E-06    1000.000E-03     597.275E-09    -664.819E-09     123.859E-09
             668              0.              0.              0.              0.     1.75762E-03     77.9847E-06    -77.9847E-06     1.75416E-03     100.000E-06     100.000E-06    -49.3923E-06    -49.6080E-06    -49.5001E-06    -49.5001E-06     100.000E-06     41.8566E-12    -11.6076E-12     11.6075E-12     100.000E-06     100.000E-06    -49.3923E-06    -49.6080E-06    -49.5001E-06    -49.5001E-06     100.000E-06     41.8566E-12    -11.6076E-12     11.6075E-12         1.00000         1.00000         1.00000     722.326E-06    -720.544E-06         1.00072    -333.335E-03     999.999E-03     895.729E-09     895.729E-09         1.00000     139.989E-09    -38.8204E-09     38.8204E-09
             669              0.              0.              0.              0.     1.75641E-03     77.9696E-06    -21.0164E-06     1.75456E-03     100.000E-06     100.000E-06    -49.3933E-06    -49.6067E-06    -49.5001E-06    -49.5000E-06     100.000E-06    -47.4361E-12     4.85156E-12    -6.90970E-12     100.000E-06     100.000E-06    -49.3933E-06    -49.6067E-06    -49.5001E-06    -49.5000E-06     100.000E-06    -47.4361E-12     4.85156E-12    -6.90970E-12         1.00000         1.00000         1.00000     713.909E-06    -713.372E-06         1.00071    -333.334E-03     999.998E-03    -246.262E-09     788.728E-09         1.00000    -158.649E-09     16.2261E-09    -23.1089E-09
             670              0.              0.              0.              0.     1.75641E-03     77.9696E-06     21.0164E-06     1.75456E-03     100.000E-06     100.000E-06    -49.3933E-06    -49.6067E-06    -49.5001E-06    -49.5000E-06     100.000E-06     47.4361E-12     4.85156E-12     6.90958E-12     100.000E-06     100.000E-06    -49.3933E-06    -49.6067E-06    -49.5001E-06    -49.5000E-06     100.000E-06     47.4361E-12     4.85156E-12     6.90958E-12         1.00000         1.00000         1.00000     713.909E-06    -713.372E-06         1.00071    -333.334E-03     999.998E-03    -246.262E-09     788.728E-09         1.00000     158.649E-09     16.2261E-09     23.1089E-09
             671              0.              0.              0.              0.     1.75762E-03     77.9847E-06     77.9847E-06     1.75416E-03     100.000E-06     100.000E-06    -49.3923E-06    -49.6080E-06    -49.5001E-06    -49.5001E-06     100.000E-06    -41.8566E-12    -11.6075E-12    -11.6076E-12     100.000E-06     100.000E-06    -49.3923E-06    -49.6080E-06    -49.5001E-06    -49.5001E-06     100.000E-06    -41.8566E-12    -11.6075E-12    -11.6076E-12         1.00000         1.00000         1.00000     722.326E-06    -720.544E-06         1.00072    -333.335E-03     999.999E-03     895.729E-09     895.729E-09         1.00000    -139.988E-09    -38.8204E-09    -38.8204E-09
             672              0.              0.              0.              0.     1.76080E-03     78.4333E-06     120.026E-06     1.75495E-03     100.017E-06     100.017E-06    -49.4006E-06    -49.6172E-06    -49.5002E-06    -49.5177E-06     100.017E-06    -178.585E-12    -198.781E-12    -37.0344E-12     100.017E-06     100.017E-06    -49.4006E-06    -49.6172E-06    -49.5002E-06    -49.5177E-06     100.017E-06    -178.585E-12    -198.781E-12    -37.0344E-12         1.00018    1000.000E-03    1000.000E-03     547.908E-06    -901.292E-06         1.00090    -333.215E-03         1.00017    -118.212E-06    -235.160E-06    1000.000E-03    -597.275E-09    -664.819E-09    -123.859E-09
             673              0.              0.              0.              0.     1.66094E-03     69.8218E-06    -127.700E-06     1.65455E-03     99.9815E-06     99.9815E-06    -49.3639E-06    -49.6172E-06    -49.4998E-06    -49.4813E-06     99.9815E-06    -158.430E-12     244.454E-12    -32.8018E-12     99.9815E-06     99.9815E-06    -49.3639E-06    -49.6172E-06    -49.4998E-06    -49.4813E-06     99.9815E-06    -158.430E-12     244.454E-12    -32.8018E-12     999.815E-03         1.00000         1.00000     1.03458E-03    -659.958E-06         1.00066    -333.458E-03     999.809E-03     125.275E-06     249.359E-06         1.00000    -529.866E-09     817.571E-09    -109.705E-09
             674              0.              0.              0.              0.     1.65846E-03     70.2900E-06    -70.2900E-06     1.65548E-03     99.9998E-06     99.9998E-06    -49.3738E-06    -49.6259E-06    -49.4999E-06    -49.4999E-06     99.9998E-06    -36.6307E-12     12.4249E-12    -12.4251E-12     99.9998E-06     99.9998E-06    -49.3738E-06    -49.6259E-06    -49.4999E-06    -49.4999E-06     99.9998E-06    -36.6307E-12     12.4249E-12    -12.4251E-12    1000.000E-03     999.997E-03     999.997E-03     842.292E-06    -844.185E-06         1.00084    -333.332E-03     999.993E-03    -941.291E-09    -941.291E-09     999.997E-03    -122.511E-09     41.5548E-09    -41.5548E-09
             675              0.              0.              0.              0.     1.65675E-03     70.2988E-06    -28.7084E-06     1.65501E-03     99.9999E-06     99.9999E-06    -49.3752E-06    -49.6247E-06    -49.4999E-06    -49.5000E-06     99.9999E-06     42.5842E-12     11.2733E-12     3.97582E-12     99.9999E-06     99.9999E-06    -49.3752E-06    -49.6247E-06    -49.4999E-06    -49.5000E-06     99.9999E-06     42.5842E-12     11.2733E-12     3.97582E-12         1.00000     999.999E-03     999.999E-03     834.198E-06    -834.821E-06         1.00083    -333.333E-03     999.995E-03     228.349E-09    -845.932E-09     999.999E-03     142.422E-09     37.7031E-09     13.2977E-09
             676              0.              0.              0.              0.     1.65675E-03     70.2988E-06     28.7084E-06     1.65501E-03     99.9999E-06     99.9999E-06    -49.3752E-06    -49.6247E-06    -49.4999E-06    -49.5000E-06     99.9999E-06    -42.5842E-12     11.2733E-12    -3.97593E-12     99.9999E-06     99.9999E-06    -49.3752E-06    -49.6247E-06    -49.4999E-06    -49.5000E-06     99.9999E-06    -42.5842E-12     11.2733E-12    -3.97593E-12         1.00000     999.999E-03     999.999E-03     834.198E-06    -834.821E-06         1.00083    -333.333E-03     999.995E-03     228.349E-09    -845.932E-09     999.999E-03    -142.422E-09     37.7031E-09    -13.2977E-09
             677              0.              0.              0.              0.     1.65846E-03     70.2900E-06     70.2900E-06     1.65548E-03     99.9998E-06     99.9998E-06    -49.3738E-06    -49.6259E-06    -49.4999E-06    -49.4999E-06     99.9998E-06     36.6307E-12     12.4251E-12     12.4249E-12     99.9998E-06     99.9998E-06    -49.3738E-06    -49.6259E-06    -49.4999E-06    -49.4999E-06     99.9998E-06     36.6307E-12     12.4251E-12     12.4249E-12    1000.000E-03     999.997E-03     999.997E-03     842.292E-06    -844.185E-06         1.00084    -333.332E-03     999.993E-03    -941.291E-09    -941.291E-09     999.997E-03     122.511E-09     41.5548E-09     41.5548E-09
             678              0.              0.              0.              0.     1.66094E-03     69.8218E-06     127.700E-06     1.65455E-03     99.9815E-06     99.9815E-06    -49.3639E-06    -49.6172E-06    -49.4998E-06    -49.4813E-06     99.9815E-06     158.430E-12     244.454E-12     32.8018E-12     99.9815E-06     99.9815E-06    -49.3639E-06    -49.6172E-06    -49.4998E-06    -49.4813E-06     99.9815E-06     158.430E-12     244.454E-12     32.8018E-12     999.815E-03         1.00000         1.00000     1.03458E-03    -659.958E-06         1.00066    -333.458E-03     999.809E-03     125.275E-06     249.359E-06         1.00000     529.866E-09     817.571E-09     109.705E-09
             679              0.              0.              0.              0.     1.56160E-03     78.9617E-06    -119.538E-06     1.55501E-03     100.020E-06     100.020E-06    -49.3639E-06    -49.6562E-06    -49.5002E-06    -49.5200E-06     100.020E-06     159.855E-12    -285.258E-12     24.3126E-12     100.020E-06     100.020E-06    -49.3639E-06    -49.6562E-06    -49.5002E-06    -49.5200E-06     100.020E-06     159.855E-12    -285.258E-12     24.3126E-12         1.00020    1000.000E-03    1000.000E-03     777.727E-06    -1.17722E-03         1.00118    -333.200E-03         1.00019    -133.592E-06    -265.884E-06    1000.000E-03     534.632E-09    -954.040E-09     81.3143E-09
             680              0.              0.              0.              0.     1.55790E-03     78.4717E-06    -78.4717E-06     1.55394E-03     100.000E-06     100.000E-06    -49.3547E-06    -49.6455E-06    -49.5001E-06    -49.5001E-06     100.000E-06     42.9852E-12    -6.16962E-12     6.16962E-12     100.000E-06     100.000E-06    -49.3547E-06    -49.6455E-06    -49.5001E-06    -49.5001E-06     100.000E-06     42.9852E-12    -6.16962E-12     6.16962E-12         1.00001         1.00000         1.00000     973.588E-06    -971.702E-06         1.00098    -333.335E-03     999.997E-03     948.654E-09     948.654E-09         1.00000     143.763E-09    -20.6351E-09     20.6351E-09
             681              0.              0.              0.              0.     1.55660E-03     78.4700E-06    -20.5305E-06     1.55448E-03     100.000E-06     100.000E-06    -49.3560E-06    -49.6440E-06    -49.5001E-06    -49.5000E-06     100.000E-06    -36.9424E-12    -10.5075E-12    -5.98666E-12     100.000E-06     100.000E-06    -49.3560E-06    -49.6440E-06    -49.5001E-06    -49.5000E-06     100.000E-06    -36.9424E-12    -10.5075E-12    -5.98666E-12         1.00000         1.00000         1.00000     963.507E-06    -962.915E-06         1.00096    -333.334E-03     999.995E-03    -265.936E-09     864.165E-09         1.00000    -123.553E-09    -35.1433E-09    -20.0221E-09
             682              0.              0.              0.              0.     1.55660E-03     78.4700E-06     20.5305E-06     1.55448E-03     100.000E-06     100.000E-06    -49.3560E-06    -49.6440E-06    -49.5001E-06    -49.5000E-06     100.000E-06     36.9424E-12    -10.5075E-12     5.98666E-12     100.000E-06     100.000E-06    -49.3560E-06    -49.6440E-06    -49.5001E-06    -49.5000E-06     100.000E-06     36.9424E-12    -10.5075E-12     5.98666E-12         1.00000         1.00000         1.00000     963.507E-06    -962.915E-06         1.00096    -333.334E-03     999.995E-03    -265.936E-09     864.165E-09         1.00000     123.553E-09    -35.1433E-09     20.0221E-09
             683              0.              0.              0.              0.     1.55790E-03     78.4717E-06     78.4717E-06     1.55394E-03     100.000E-06     100.000E-06    -49.3547E-06    -49.6455E-06    -49.5001E-06    -49.5001E-06     100.000E-06    -42.9852E-12    -6.16962E-12    -6.16962E-12     100.000E-06     100.000E-06    -49.3547E-06    -49.6455E-06    -49.5001E-06    -49.5001E-06     100.000E-06    -42.9852E-12    -6.16962E-12    -6.16962E-12         1.00001         1.00000         1.00000     973.588E-06    -971.702E-06         1.00098    -333.335E-03     999.997E-03     948.654E-09     948.654E-09         1.00000    -143.763E-09    -20.6351E-09    -20.6351E-09
             684              0.              0.              0.              0.     1.56160E-03     78.9617E-06     119.538E-06     1.55501E-03     100.020E-06     100.020E-06    -49.3639E-06    -49.6562E-06    -49.5002E-06    -49.5200E-06     100.020E-06    -159.855E-12    -285.258E-12    -24.3126E-12     100.020E-06     100.020E-06    -49.3639E-06    -49.6562E-06    -49.5002E-06    -49.5200E-06     100.020E-06    -159.855E-12    -285.258E-12    -24.3126E-12         1.00020    1000.000E-03    1000.000E-03     777.727E-06    -1.17722E-03         1.00118    -333.200E-03         1.00019    -133.592E-06    -265.884E-06    1000.000E-03    -534.632E-09    -954.040E-09    -81.3143E-09
             685              0.              0.              0.              0.     1.46177E-03     69.2140E-06    -128.262E-06     1.45448E-03     99.9788E-06     99.9788E-06    -49.3223E-06    -49.6561E-06    -49.4998E-06    -49.4786E-06     99.9788E-06    -160.224E-12     276.223E-12    -840.217E-15     99.9788E-06     99.9788E-06    -49.3223E-06    -49.6561E-06    -49.4998E-06    -49.4786E-06     99.9788E-06    -160.224E-12     276.223E-12    -840.217E-15     999.790E-03         1.00000         1.00000     1.33047E-03    -902.567E-06         1.00090    -333.476E-03     999.779E-03     143.086E-06     284.832E-06         1.00000    -535.867E-09     923.825E-09    -2.80852E-09
             686              0.              0.              0.              0.     1.45904E-03     69.7279E-06    -69.7279E-06     1.45571E-03     99.9997E-06     99.9997E-06    -49.3338E-06    -49.6659E-06    -49.4999E-06    -49.4999E-06     99.9997E-06    -40.2562E-12    -48.8717E-12     48.8717E-12     99.9997E-06     99.9997E-06    -49.3338E-06    -49.6659E-06    -49.4999E-06    -49.4999E-06     99.9997E-06    -40.2562E-12    -48.8717E-12     48.8717E-12         1.00000     999.996E-03     999.996E-03     1.10972E-03    -1.11207E-03         1.00111    -333.331E-03     999.990E-03    -1.16795E-06    -1.16795E-06     999.996E-03    -134.636E-09    -163.452E-09     163.452E-09
             687              0.              0.              0.              0.     1.45705E-03     69.7214E-06    -29.2695E-06     1.45509E-03     99.9999E-06     99.9999E-06    -49.3354E-06    -49.6646E-06    -49.4999E-06    -49.5001E-06     99.9999E-06     39.8559E-12    -41.1847E-12     49.2918E-12     99.9999E-06     99.9999E-06    -49.3354E-06    -49.6646E-06    -49.4999E-06    -49.5001E-06     99.9999E-06     39.8559E-12    -41.1847E-12     49.2918E-12         1.00000     999.999E-03     999.999E-03     1.10028E-03    -1.10173E-03         1.00110    -333.332E-03     999.992E-03     189.175E-12    -1.45234E-06     999.999E-03     133.297E-09    -137.743E-09     164.856E-09
             688              0.              0.              0.              0.     1.45705E-03     69.7214E-06     29.2695E-06     1.45509E-03     99.9999E-06     99.9999E-06    -49.3354E-06    -49.6646E-06    -49.4999E-06    -49.5001E-06     99.9999E-06    -39.8559E-12    -41.1847E-12    -49.2918E-12     99.9999E-06     99.9999E-06    -49.3354E-06    -49.6646E-06    -49.4999E-06    -49.5001E-06     99.9999E-06    -39.8559E-12    -41.1847E-12    -49.2918E-12         1.00000     999.999E-03     999.999E-03     1.10028E-03    -1.10173E-03         1.00110    -333.332E-03     999.992E-03     189.175E-12    -1.45234E-06     999.999E-03    -133.297E-09    -137.743E-09    -164.856E-09
             689              0.              0.              0.              0.     1.45904E-03     69.7279E-06     69.7279E-06     1.45571E-03     99.9997E-06     99.9997E-06    -49.3338E-06    -49.6659E-06    -49.4999E-06    -49.4999E-06     99.9997E-06     40.2562E-12    -48.8717E-12    -48.8717E-12     99.9997E-06     99.9997E-06    -49.3338E-06    -49.6659E-06    -49.4999E-06    -49.4999E-06     99.9997E-06     40.2562E-12    -48.8717E-12    -48.8717E-12         1.00000     999.996E-03     999.996E-03     1.10972E-03    -1.11207E-03         1.00111    -333.331E-03     999.990E-03    -1.16795E-06    -1.16795E-06     999.996E-03     134.636E-09    -163.452E-09    -163.452E-09
             690              0.              0.              0.              0.     1.46177E-03     69.2140E-06     128.262E-06     1.45448E-03     99.9788E-06     99.9788E-06    -49.3223E-06    -49.6561E-06    -49.4998E-06    -49.4786E-06     99.9788E-06     160.224E-12     276.223E-12     840.217E-15     99.9788E-06     99.9788E-06    -49.3223E-06    -49.6561E-06    -49.4998E-06    -49.4786E-06     99.9788E-06     160.224E-12     276.223E-12     840.217E-15     999.790E-03         1.00000         1.00000     1.33047E-03    -902.567E-06         1.00090    -333.476E-03     999.779E-03     143.086E-06     284.832E-06         1.00000     535.867E-09     923.825E-09     2.80852E-09
             691              0.              0.              0.              0.     1.36263E-03     79.6543E-06    -118.897E-06     1.35509E-03     100.023E-06     100.023E-06    -49.3224E-06    -49.7008E-06    -49.5003E-06    -49.5230E-06     100.023E-06     162.034E-12    -514.821E-12     207.400E-12     100.023E-06     100.023E-06    -49.3224E-06    -49.7008E-06    -49.5003E-06    -49.5230E-06     100.023E-06     162.034E-12    -514.821E-12     207.400E-12         1.00023     999.999E-03     999.999E-03     1.03440E-03    -1.49671E-03         1.00150    -333.179E-03         1.00022    -155.148E-06    -307.139E-06     999.999E-03     541.918E-09    -1.72181E-06     693.646E-09
             692              0.              0.              0.              0.     1.35832E-03     79.1142E-06    -79.1142E-06     1.35370E-03     100.000E-06     100.000E-06    -49.3120E-06    -49.6884E-06    -49.5002E-06    -49.5002E-06     100.000E-06     34.7047E-12    -138.550E-12     138.550E-12     100.000E-06     100.000E-06    -49.3120E-06    -49.6884E-06    -49.5002E-06    -49.5002E-06     100.000E-06     34.7047E-12    -138.550E-12     138.550E-12         1.00001         1.00000         1.00000     1.25930E-03    -1.25891E-03         1.00126    -333.335E-03     999.995E-03     203.465E-09     203.465E-09         1.00000     116.069E-09    -463.376E-09     463.376E-09
             693              0.              0.              0.              0.     1.35686E-03     79.1301E-06    -19.8890E-06     1.35440E-03     100.000E-06     100.000E-06    -49.3134E-06    -49.6868E-06    -49.5002E-06    -49.5000E-06     100.000E-06    -46.3121E-12    -143.067E-12     34.8493E-12     100.000E-06     100.000E-06    -49.3134E-06    -49.6868E-06    -49.5002E-06    -49.5000E-06     100.000E-06    -46.3121E-12    -143.067E-12     34.8493E-12         1.00001         1.00000         1.00000     1.24870E-03    -1.24926E-03         1.00125    -333.334E-03     999.993E-03    -876.229E-09     323.809E-09         1.00000    -154.890E-09    -478.484E-09     116.553E-09
             694              0.              0.              0.              0.     1.35686E-03     79.1301E-06     19.8890E-06     1.35440E-03     100.000E-06     100.000E-06    -49.3134E-06    -49.6868E-06    -49.5002E-06    -49.5000E-06     100.000E-06     46.3121E-12    -143.067E-12    -34.8493E-12     100.000E-06     100.000E-06    -49.3134E-06    -49.6868E-06    -49.5002E-06    -49.5000E-06     100.000E-06     46.3121E-12    -143.067E-12    -34.8493E-12         1.00001         1.00000         1.00000     1.24870E-03    -1.24926E-03         1.00125    -333.334E-03     999.993E-03    -876.229E-09     323.809E-09         1.00000     154.890E-09    -478.484E-09    -116.553E-09
             695              0.              0.              0.              0.     1.35832E-03     79.1142E-06     79.1142E-06     1.35370E-03     100.000E-06     100.000E-06    -49.3120E-06    -49.6884E-06    -49.5002E-06    -49.5002E-06     100.000E-06    -34.7047E-12    -138.550E-12    -138.550E-12     100.000E-06     100.000E-06    -49.3120E-06    -49.6884E-06    -49.5002E-06    -49.5002E-06     100.000E-06    -34.7047E-12    -138.550E-12    -138.550E-12         1.00001         1.00000         1.00000     1.25930E-03    -1.25891E-03         1.00126    -333.335E-03     999.995E-03     203.465E-09     203.465E-09         1.00000    -116.069E-09    -463.376E-09    -463.376E-09
             696              0.              0.              0.              0.     1.36263E-03     79.6543E-06     118.897E-06     1.35509E-03     100.023E-06     100.023E-06    -49.3224E-06    -49.7008E-06    -49.5003E-06    -49.5230E-06     100.023E-06    -162.034E-12    -514.821E-12    -207.400E-12     100.023E-06     100.023E-06    -49.3224E-06    -49.7008E-06    -49.5003E-06    -49.5230E-06     100.023E-06    -162.034E-12    -514.821E-12    -207.400E-12         1.00023     999.999E-03     999.999E-03     1.03440E-03    -1.49671E-03         1.00150    -333.179E-03         1.00022    -155.148E-06    -307.139E-06     999.999E-03    -541.918E-09    -1.72181E-06    -693.646E-09
             697              0.              0.              0.              0.     1.26287E-03     68.4313E-06    -128.990E-06     1.25440E-03     99.9751E-06     99.9751E-06    -49.2740E-06    -49.7006E-06    -49.4996E-06    -49.4750E-06     99.9751E-06    -279.887E-12     98.2667E-12     81.8332E-12     99.9751E-06     99.9751E-06    -49.2740E-06    -49.7006E-06    -49.4996E-06    -49.4750E-06     99.9751E-06    -279.887E-12     98.2667E-12     81.8332E-12     999.754E-03     999.998E-03     999.998E-03     1.67629E-03    -1.17725E-03         1.00118    -333.499E-03     999.737E-03     166.966E-06     332.102E-06     999.998E-03    -936.076E-09     328.653E-09     273.689E-09
             698              0.              0.              0.              0.     1.25976E-03     68.9993E-06    -68.9993E-06     1.25597E-03     99.9995E-06     99.9995E-06    -49.2875E-06    -49.7120E-06    -49.4997E-06    -49.4997E-06     99.9995E-06    -187.156E-12    -382.004E-12     382.003E-12     99.9995E-06     99.9995E-06    -49.2875E-06    -49.7120E-06    -49.4997E-06    -49.4997E-06     99.9995E-06    -187.156E-12    -382.004E-12     382.003E-12         1.00000     999.994E-03     999.994E-03     1.41890E-03    -1.42027E-03         1.00141    -333.331E-03     999.983E-03    -676.460E-09    -676.460E-09     999.994E-03    -625.941E-09    -1.27760E-06     1.27760E-06
             699              0.              0.              0.              0.     1.25743E-03     68.9729E-06    -29.9975E-06     1.25518E-03     100.000E-06     100.000E-06    -49.2893E-06    -49.7107E-06    -49.4997E-06    -49.5003E-06     100.000E-06    -47.2131E-12    -509.384E-12     341.087E-12     100.000E-06     100.000E-06    -49.2893E-06    -49.7107E-06    -49.4997E-06    -49.5003E-06     100.000E-06    -47.2131E-12    -509.384E-12     341.087E-12         1.00001     999.999E-03     999.999E-03     1.40807E-03    -1.41051E-03         1.00141    -333.332E-03     999.988E-03     637.956E-09    -3.06813E-06     999.999E-03    -157.903E-09    -1.70363E-06     1.14076E-06
             700              0.              0.              0.              0.     1.25743E-03     68.9729E-06     29.9975E-06     1.25518E-03     100.000E-06     100.000E-06    -49.2893E-06    -49.7107E-06    -49.4997E-06    -49.5003E-06     100.000E-06     47.2132E-12    -509.384E-12    -341.087E-12     100.000E-06     100.000E-06    -49.2893E-06    -49.7107E-06    -49.4997E-06    -49.5003E-06     100.000E-06     47.2132E-12    -509.384E-12    -341.087E-12         1.00001     999.999E-03     999.999E-03     1.40807E-03    -1.41051E-03         1.00141    -333.332E-03     999.988E-03     637.956E-09    -3.06813E-06     999.999E-03     157.903E-09    -1.70363E-06    -1.14076E-06
             701              0.              0.              0.              0.     1.25976E-03     68.9993E-06     68.9993E-06     1.25597E-03     99.9995E-06     99.9995E-06    -49.2875E-06    -49.7120E-06    -49.4997E-06    -49.4997E-06     99.9995E-06     187.156E-12    -382.003E-12    -382.003E-12     99.9995E-06     99.9995E-06    -49.2875E-06    -49.7120E-06    -49.4997E-06    -49.4997E-06     99.9995E-06     187.156E-12    -382.003E-12    -382.003E-12         1.00000     999.994E-03     999.994E-03     1.41890E-03    -1.42027E-03         1.00141    -333.331E-03     999.983E-03    -676.460E-09    -676.460E-09     999.994E-03     625.941E-09    -1.27760E-06    -1.27760E-06
             702              0.              0.              0.              0.     1.26287E-03     68.4313E-06     128.990E-06     1.25440E-03     99.9751E-06     99.9751E-06    -49.2740E-06    -49.7006E-06    -49.4996E-06    -49.4750E-06     99.9751E-06     279.887E-12     98.2667E-12    -81.8332E-12     99.9751E-06     99.9751E-06    -49.2740E-06    -49.7006E-06    -49.4996E-06    -49.4750E-06     99.9751E-06     279.887E-12     98.2667E-12    -81.8332E-12     999.754E-03     999.998E-03     999.998E-03     1.67629E-03    -1.17725E-03         1.00118    -333.499E-03     999.737E-03     166.966E-06     332.102E-06     999.998E-03     936.076E-09     328.653E-09    -273.689E-09
             703              0.              0.              0.              0.     1.16400E-03     80.5340E-06    -118.076E-06     1.15519E-03     100.026E-06     100.026E-06    -49.2741E-06    -49.7529E-06    -49.5002E-06    -49.5268E-06     100.026E-06    -26.7134E-12    -883.893E-12     614.997E-12     100.026E-06     100.026E-06    -49.2741E-06    -49.7529E-06    -49.5002E-06    -49.5268E-06     100.026E-06    -26.7134E-12    -883.893E-12     614.997E-12         1.00028     999.994E-03     999.994E-03     1.32788E-03    -1.87482E-03         1.00187    -333.149E-03         1.00025    -184.584E-06    -362.334E-06     999.994E-03    -89.3428E-09    -2.95616E-06     2.05685E-06
             704              0.              0.              0.              0.     1.15894E-03     79.9365E-06    -79.9365E-06     1.15341E-03     100.001E-06     100.001E-06    -49.2621E-06    -49.7384E-06    -49.5003E-06    -49.5003E-06     100.000E-06    -194.194E-12    -397.324E-12     397.324E-12     100.001E-06     100.001E-06    -49.2621E-06    -49.7384E-06    -49.5003E-06    -49.5003E-06     100.000E-06    -194.194E-12    -397.324E-12     397.324E-12         1.00001         1.00000         1.00000     1.59101E-03    -1.59559E-03         1.00160    -333.333E-03     999.990E-03    -2.27749E-06    -2.27749E-06         1.00000    -649.478E-09    -1.32884E-06     1.32884E-06
             705              0.              0.              0.              0.     1.15723E-03     79.9753E-06    -19.0679E-06     1.15430E-03     100.000E-06     100.000E-06    -49.2637E-06    -49.7368E-06    -49.5005E-06    -49.5000E-06     100.000E-06    -180.837E-12    -365.707E-12     89.8253E-12     100.000E-06     100.000E-06    -49.2637E-06    -49.7368E-06    -49.5005E-06    -49.5000E-06     100.000E-06    -180.837E-12    -365.707E-12     89.8253E-12         1.00001         1.00000         1.00000     1.58200E-03    -1.58305E-03         1.00159    -333.334E-03     999.990E-03    -2.08104E-06     1.04090E-06         1.00000    -604.807E-09    -1.22310E-06     300.419E-09
             706              0.              0.              0.              0.     1.15723E-03     79.9753E-06     19.0679E-06     1.15430E-03     100.000E-06     100.000E-06    -49.2637E-06    -49.7368E-06    -49.5005E-06    -49.5000E-06     100.000E-06     180.837E-12    -365.707E-12    -89.8253E-12     100.000E-06     100.000E-06    -49.2637E-06    -49.7368E-06    -49.5005E-06    -49.5000E-06     100.000E-06     180.837E-12    -365.707E-12    -89.8253E-12         1.00001         1.00000         1.00000     1.58200E-03    -1.58305E-03         1.00159    -333.334E-03     999.990E-03    -2.08104E-06     1.04090E-06         1.00000     604.807E-09    -1.22310E-06    -300.419E-09
             707              0.              0.              0.              0.     1.15894E-03     79.9365E-06     79.9365E-06     1.15341E-03     100.001E-06     100.001E-06    -49.2621E-06    -49.7384E-06    -49.5003E-06    -49.5003E-06     100.000E-06     194.194E-12    -397.324E-12    -397.324E-12     100.001E-06     100.001E-06    -49.2621E-06    -49.7384E-06    -49.5003E-06    -49.5003E-06     100.000E-06     194.194E-12    -397.324E-12    -397.324E-12         1.00001         1.00000         1.00000     1.59101E-03    -1.59559E-03         1.00160    -333.333E-03     999.990E-03    -2.27749E-06    -2.27749E-06         1.00000     649.478E-09    -1.32884E-06    -1.32884E-06
             708              0.              0.              0.              0.     1.16400E-03     80.5340E-06     118.076E-06     1.15519E-03     100.026E-06     100.026E-06    -49.2741E-06    -49.7529E-06    -49.5002E-06    -49.5268E-06     100.026E-06     26.7134E-12    -883.893E-12    -614.997E-12     100.026E-06     100.026E-06    -49.2741E-06    -49.7529E-06    -49.5002E-06    -49.5268E-06     100.026E-06     26.7134E-12    -883.893E-12    -614.997E-12         1.00028     999.994E-03     999.994E-03     1.32788E-03    -1.87482E-03         1.00187    -333.149E-03         1.00025    -184.584E-06    -362.334E-06     999.994E-03     89.3428E-09    -2.95616E-06    -2.05685E-06
             709              0.              0.              0.              0.     1.06441E-03     67.4475E-06    -129.911E-06     1.05429E-03     99.9700E-06     99.9700E-06    -49.2167E-06    -49.7527E-06    -49.4992E-06    -49.4702E-06     99.9700E-06    -791.553E-12     1.85284E-09    -452.011E-12     99.9700E-06     99.9700E-06    -49.2167E-06    -49.7527E-06    -49.4992E-06    -49.4702E-06     99.9700E-06    -791.553E-12     1.85284E-09    -452.011E-12     999.707E-03     999.998E-03     999.998E-03     2.09367E-03    -1.49203E-03         1.00149    -333.533E-03     999.678E-03     203.651E-06     398.028E-06     999.998E-03    -2.64733E-06     6.19678E-06    -1.51174E-06
             710              0.              0.              0.              0.     1.06066E-03     68.0753E-06    -68.0753E-06     1.05628E-03     99.9986E-06     99.9986E-06    -49.2326E-06    -49.7660E-06    -49.4993E-06    -49.4993E-06     99.9986E-06    -743.549E-12     974.452E-12    -974.452E-12     99.9986E-06     99.9986E-06    -49.2326E-06    -49.7660E-06    -49.4993E-06    -49.4993E-06     99.9986E-06    -743.549E-12     974.452E-12    -974.452E-12     999.995E-03     999.997E-03     999.997E-03     1.79529E-03    -1.77286E-03         1.00177    -333.340E-03     999.967E-03     11.2311E-06     11.2311E-06     999.997E-03    -2.48679E-06     3.25904E-06    -3.25904E-06
             711              0.              0.              0.              0.     1.05792E-03     68.0244E-06    -30.9201E-06     1.05528E-03     99.9984E-06     99.9984E-06    -49.2343E-06    -49.7640E-06    -49.4990E-06    -49.4993E-06     99.9984E-06    -347.773E-12     403.687E-12    -748.446E-12     99.9984E-06     99.9984E-06    -49.2343E-06    -49.7640E-06    -49.4990E-06    -49.4993E-06     99.9984E-06    -347.773E-12     403.687E-12    -748.446E-12     999.993E-03     999.998E-03     999.998E-03     1.78622E-03    -1.75687E-03         1.00176    -333.343E-03     999.965E-03     15.6663E-06     13.7061E-06     999.998E-03    -1.16312E-06     1.35012E-06    -2.50317E-06
             712              0.              0.              0.              0.     1.05792E-03     68.0244E-06     30.9201E-06     1.05528E-03     99.9984E-06     99.9984E-06    -49.2343E-06    -49.7640E-06    -49.4990E-06    -49.4993E-06     99.9984E-06     347.773E-12     403.687E-12     748.446E-12     99.9984E-06     99.9984E-06    -49.2343E-06    -49.7640E-06    -49.4990E-06    -49.4993E-06     99.9984E-06     347.773E-12     403.687E-12     748.446E-12     999.993E-03     999.998E-03     999.998E-03     1.78622E-03    -1.75687E-03         1.00176    -333.343E-03     999.965E-03     15.6663E-06     13.7061E-06     999.998E-03     1.16312E-06     1.35012E-06     2.50317E-06
             713              0.              0.              0.              0.     1.06066E-03     68.0753E-06     68.0753E-06     1.05628E-03     99.9986E-06     99.9986E-06    -49.2326E-06    -49.7660E-06    -49.4993E-06    -49.4993E-06     99.9986E-06     743.549E-12     974.452E-12     974.452E-12     99.9986E-06     99.9986E-06    -49.2326E-06    -49.7660E-06    -49.4993E-06    -49.4993E-06     99.9986E-06     743.549E-12     974.452E-12     974.452E-12     999.995E-03     999.997E-03     999.997E-03     1.79529E-03    -1.77286E-03         1.00177    -333.340E-03     999.967E-03     11.2311E-06     11.2311E-06     999.997E-03     2.48679E-06     3.25904E-06     3.25904E-06
             714              0.              0.              0.              0.     1.06441E-03     67.4475E-06     129.911E-06     1.05429E-03     99.9700E-06     99.9700E-06    -49.2167E-06    -49.7527E-06    -49.4992E-06    -49.4702E-06     99.9700E-06     791.553E-12     1.85284E-09     452.011E-12     99.9700E-06     99.9700E-06    -49.2167E-06    -49.7527E-06    -49.4992E-06    -49.4702E-06     99.9700E-06     791.553E-12     1.85284E-09     452.011E-12     999.707E-03     999.998E-03     999.998E-03     2.09367E-03    -1.49203E-03         1.00149    -333.533E-03     999.678E-03     203.651E-06     398.028E-06     999.998E-03     2.64733E-06     6.19678E-06     1.51174E-06
             715              0.              0.              0.              0.     965.907E-06     81.6239E-06    -117.040E-06     955.309E-06     100.031E-06     100.031E-06    -49.2149E-06    -49.8172E-06    -49.4988E-06    -49.5333E-06     100.031E-06     313.699E-12     5.28826E-09    -7.46508E-09     100.031E-06     100.031E-06    -49.2149E-06    -49.8172E-06    -49.4988E-06    -49.5333E-06     100.031E-06     313.699E-12     5.28826E-09    -7.46508E-09         1.00033         1.00002         1.00002     1.71660E-03    -2.31227E-03         1.00233    -333.141E-03         1.00029    -182.534E-06    -413.099E-06         1.00002     1.04916E-06     17.6865E-06    -24.9668E-06
             716              0.              0.              0.              0.     959.920E-06     80.9664E-06    -80.9664E-06     953.067E-06     99.9980E-06     99.9980E-06    -49.1993E-06    -49.7986E-06    -49.4990E-06    -49.4990E-06     99.9980E-06    -82.7279E-12     6.20065E-09    -6.20065E-09     99.9980E-06     99.9980E-06    -49.1993E-06    -49.7986E-06    -49.4990E-06    -49.4990E-06     99.9980E-06    -82.7279E-12     6.20065E-09    -6.20065E-09     999.991E-03         1.00000         1.00000     2.02885E-03    -1.97951E-03         1.00198    -333.351E-03     999.956E-03     24.6829E-06     24.6829E-06         1.00000    -276.681E-09     20.7379E-06    -20.7379E-06
             717              0.              0.              0.              0.     957.804E-06     81.0325E-06    -18.0300E-06     954.199E-06     99.9961E-06     99.9961E-06    -49.2009E-06    -49.7951E-06    -49.4998E-06    -49.4962E-06     99.9960E-06    -239.577E-12     6.47978E-09    -2.46810E-09     99.9961E-06     99.9961E-06    -49.2009E-06    -49.7951E-06    -49.4998E-06    -49.4962E-06     99.9960E-06    -239.577E-12     6.47978E-09    -2.46810E-09     999.972E-03     999.993E-03     999.993E-03     2.02027E-03    -1.95413E-03         1.00195    -333.353E-03     999.937E-03     20.8725E-06     45.2885E-06     999.993E-03    -801.262E-09     21.6715E-06    -8.25453E-06
             718              0.              0.              0.              0.     957.804E-06     81.0325E-06     18.0300E-06     954.199E-06     99.9961E-06     99.9961E-06    -49.2009E-06    -49.7951E-06    -49.4998E-06    -49.4962E-06     99.9960E-06     239.577E-12     6.47978E-09     2.46810E-09     99.9961E-06     99.9961E-06    -49.2009E-06    -49.7951E-06    -49.4998E-06    -49.4962E-06     99.9960E-06     239.577E-12     6.47978E-09     2.46810E-09     999.972E-03     999.993E-03     999.993E-03     2.02027E-03    -1.95413E-03         1.00195    -333.353E-03     999.937E-03     20.8725E-06     45.2885E-06     999.993E-03     801.262E-09     21.6715E-06     8.25453E-06
             719              0.              0.              0.              0.     959.920E-06     80.9664E-06     80.9664E-06     953.067E-06     99.9980E-06     99.9980E-06    -49.1993E-06    -49.7986E-06    -49.4990E-06    -49.4990E-06     99.9980E-06     82.7279E-12     6.20065E-09     6.20065E-09     99.9980E-06     99.9980E-06    -49.1993E-06    -49.7986E-06    -49.4990E-06    -49.4990E-06     99.9980E-06     82.7279E-12     6.20065E-09     6.20065E-09     999.991E-03         1.00000         1.00000     2.02885E-03    -1.97951E-03         1.00198    -333.351E-03     999.956E-03     24.6829E-06     24.6829E-06         1.00000     276.681E-09     20.7379E-06     20.7379E-06
             720              0.              0.              0.              0.     965.907E-06     81.6239E-06     117.040E-06     955.309E-06     100.031E-06     100.031E-06    -49.2149E-06    -49.8172E-06    -49.4988E-06    -49.5333E-06     100.031E-06    -313.699E-12     5.28826E-09     7.46508E-09     100.031E-06     100.031E-06    -49.2149E-06    -49.8172E-06    -49.4988E-06    -49.5333E-06     100.031E-06    -313.699E-12     5.28826E-09     7.46508E-09         1.00033         1.00002         1.00002     1.71660E-03    -2.31227E-03         1.00233    -333.141E-03         1.00029    -182.534E-06    -413.099E-06         1.00002    -1.04916E-06     17.6865E-06     24.9668E-06
             721              0.              0.              0.              0.     866.679E-06     66.2201E-06    -131.049E-06     854.150E-06     99.9761E-06     99.9761E-06    -49.1522E-06    -49.8231E-06    -49.5026E-06    -49.4727E-06     99.9761E-06     1.15344E-09     24.5123E-09    -8.09296E-09     99.9761E-06     99.9761E-06    -49.1522E-06    -49.8231E-06    -49.5026E-06    -49.4727E-06     99.9761E-06     1.15344E-09     24.5123E-09    -8.09296E-09     999.772E-03         1.00012         1.00012     2.60758E-03    -1.87971E-03         1.00200    -333.616E-03     999.728E-03     263.979E-06     463.941E-06         1.00012     3.85766E-06     81.9811E-06    -27.0668E-06
             722              0.              0.              0.              0.     861.897E-06     66.9047E-06    -66.9047E-06     856.688E-06     100.004E-06     100.004E-06    -49.1691E-06    -49.8342E-06    -49.5017E-06    -49.5017E-06     100.004E-06     3.48562E-09     24.0978E-09    -24.0978E-09     100.004E-06     100.004E-06    -49.1691E-06    -49.8342E-06    -49.5017E-06    -49.5017E-06     100.004E-06     3.48562E-09     24.0978E-09    -24.0978E-09         1.00005         1.00009         1.00009     2.27790E-03    -2.17060E-03         1.00226    -333.399E-03         1.00001     53.6785E-06     53.6785E-06         1.00009     11.6576E-06     80.5946E-06    -80.5946E-06
             723              0.              0.              0.              0.     858.611E-06     66.8257E-06    -32.0791E-06     855.405E-06     99.9850E-06     99.9850E-06    -49.1600E-06    -49.8248E-06    -49.4994E-06    -49.4854E-06     99.9850E-06     2.90890E-09     27.3752E-09    -20.0513E-09     99.9850E-06     99.9850E-06    -49.1600E-06    -49.8248E-06    -49.4994E-06    -49.4854E-06     99.9850E-06     2.90890E-09     27.3752E-09    -20.0513E-09     999.863E-03     999.961E-03     999.961E-03     2.33651E-03    -2.11076E-03         1.00207    -333.396E-03     999.820E-03     66.2800E-06     159.529E-06     999.961E-03     9.72877E-06     91.5558E-06    -67.0612E-06
             724              0.              0.              0.              0.     858.611E-06     66.8257E-06     32.0791E-06     855.405E-06     99.9850E-06     99.9850E-06    -49.1600E-06    -49.8248E-06    -49.4994E-06    -49.4854E-06     99.9850E-06    -2.90890E-09     27.3752E-09     20.0513E-09     99.9850E-06     99.9850E-06    -49.1600E-06    -49.8248E-06    -49.4994E-06    -49.4854E-06     99.9850E-06    -2.90890E-09     27.3752E-09     20.0513E-09     999.863E-03     999.961E-03     999.961E-03     2.33651E-03    -2.11076E-03         1.00207    -333.396E-03     999.820E-03     66.2800E-06     159.529E-06     999.961E-03    -9.72877E-06     91.5558E-06     67.0612E-06
             725              0.              0.              0.              0.     861.897E-06     66.9047E-06     66.9047E-06     856.688E-06     100.004E-06     100.004E-06    -49.1691E-06    -49.8342E-06    -49.5017E-06    -49.5017E-06     100.004E-06    -3.48562E-09     24.0978E-09     24.0978E-09     100.004E-06     100.004E-06    -49.1691E-06    -49.8342E-06    -49.5017E-06    -49.5017E-06     100.004E-06    -3.48562E-09     24.0978E-09     24.0978E-09         1.00005         1.00009         1.00009     2.27790E-03    -2.17060E-03         1.00226    -333.399E-03         1.00001     53.6785E-06     53.6785E-06         1.00009    -11.6576E-06     80.5946E-06     80.5946E-06
             726              0.              0.              0.              0.     866.679E-06     66.2201E-06     131.049E-06     854.150E-06     99.9761E-06     99.9761E-06    -49.1522E-06    -49.8231E-06    -49.5026E-06    -49.4727E-06     99.9761E-06    -1.15344E-09     24.5123E-09     8.09296E-09     99.9761E-06     99.9761E-06    -49.1522E-06    -49.8231E-06    -49.5026E-06    -49.4727E-06     99.9761E-06    -1.15344E-09     24.5123E-09     8.09296E-09     999.772E-03         1.00012         1.00012     2.60758E-03    -1.87971E-03         1.00200    -333.616E-03     999.728E-03     263.979E-06     463.941E-06         1.00012    -3.85766E-06     81.9811E-06     27.0668E-06
             727              0.              0.              0.              0.     768.749E-06     82.9348E-06    -115.767E-06     755.444E-06     100.049E-06     100.049E-06    -49.1401E-06    -49.9091E-06    -49.4971E-06    -49.5521E-06     100.049E-06     15.9986E-09     41.6790E-09    -64.3090E-09     100.049E-06     100.049E-06    -49.1401E-06    -49.9091E-06    -49.4971E-06    -49.5521E-06     100.049E-06     15.9986E-09     41.6790E-09    -64.3090E-09         1.00051         1.00036         1.00036     2.44052E-03    -2.70385E-03         1.00307    -333.366E-03         1.00046     52.3028E-06    -315.471E-06         1.00036     53.5070E-06     139.395E-06    -215.080E-06
             728              0.              0.              0.              0.     761.491E-06     82.2359E-06    -82.2359E-06     752.558E-06     99.9879E-06     99.9879E-06    -49.1135E-06    -49.8738E-06    -49.4937E-06    -49.4937E-06     99.9878E-06     15.3694E-09     46.8774E-09    -46.8774E-09     99.9879E-06     99.9879E-06    -49.1135E-06    -49.8738E-06    -49.4937E-06    -49.4937E-06     99.9878E-06     15.3694E-09     46.8774E-09    -46.8774E-09     999.895E-03         1.00010         1.00010     2.76331E-03    -2.32246E-03         1.00242    -333.513E-03     999.839E-03     220.506E-06     220.506E-06         1.00010     51.4026E-06     156.780E-06    -156.780E-06
             729              0.              0.              0.              0.     758.760E-06     82.3059E-06    -16.6886E-06     754.098E-06     99.9696E-06     99.9696E-06    -49.1065E-06    -49.8630E-06    -49.4898E-06    -49.4797E-06     99.9696E-06     7.37007E-09     50.6428E-09    -14.7229E-09     99.9696E-06     99.9696E-06    -49.1065E-06    -49.8630E-06    -49.4898E-06    -49.4797E-06     99.9696E-06     7.37007E-09     50.6428E-09    -14.7229E-09     999.713E-03     999.843E-03     999.843E-03     2.67883E-03    -2.38132E-03         1.00222    -333.380E-03     999.657E-03     115.194E-06     182.420E-06     999.843E-03     24.6491E-06     169.374E-06    -49.2403E-06
             730              0.              0.              0.              0.     758.760E-06     82.3059E-06     16.6886E-06     754.098E-06     99.9696E-06     99.9696E-06    -49.1065E-06    -49.8630E-06    -49.4898E-06    -49.4797E-06     99.9696E-06    -7.37007E-09     50.6428E-09     14.7229E-09     99.9696E-06     99.9696E-06    -49.1065E-06    -49.8630E-06    -49.4898E-06    -49.4797E-06     99.9696E-06    -7.37007E-09     50.6428E-09     14.7229E-09     999.713E-03     999.843E-03     999.843E-03     2.67883E-03    -2.38132E-03         1.00222    -333.380E-03     999.657E-03     115.194E-06     182.420E-06     999.843E-03    -24.6491E-06     169.374E-06     49.2403E-06
             731              0.              0.              0.              0.     761.491E-06     82.2359E-06     82.2359E-06     752.558E-06     99.9879E-06     99.9879E-06    -49.1135E-06    -49.8738E-06    -49.4937E-06    -49.4937E-06     99.9878E-06    -15.3694E-09     46.8774E-09     46.8774E-09     99.9879E-06     99.9879E-06    -49.1135E-06    -49.8738E-06    -49.4937E-06    -49.4937E-06     99.9878E-06    -15.3694E-09     46.8774E-09     46.8774E-09     999.895E-03         1.00010         1.00010     2.76331E-03    -2.32246E-03         1.00242    -333.513E-03     999.839E-03     220.506E-06     220.506E-06         1.00010    -51.4026E-06     156.780E-06     156.780E-06
             732              0.              0.              0.              0.     768.749E-06     82.9348E-06     115.767E-06     755.444E-06     100.049E-06     100.049E-06    -49.1401E-06    -49.9091E-06    -49.4971E-06    -49.5521E-06     100.049E-06    -15.9986E-09     41.6790E-09     64.3090E-09     100.049E-06     100.049E-06    -49.1401E-06    -49.9091E-06    -49.4971E-06    -49.5521E-06     100.049E-06    -15.9986E-09     41.6790E-09     64.3090E-09         1.00051         1.00036         1.00036     2.44052E-03    -2.70385E-03         1.00307    -333.366E-03         1.00046     52.3028E-06    -315.471E-06         1.00036    -53.5070E-06     139.395E-06     215.080E-06
             733              0.              0.              0.              0.     670.273E-06     64.7284E-06    -132.409E-06     653.869E-06     100.057E-06     100.057E-06    -49.1006E-06    -49.9558E-06    -49.5402E-06    -49.5161E-06     100.057E-06     29.0118E-09     40.1212E-09     7.88744E-09     100.057E-06     100.057E-06    -49.1006E-06    -49.9558E-06    -49.5402E-06    -49.5161E-06     100.057E-06     29.0118E-09     40.1212E-09     7.88744E-09         1.00059         1.00066         1.00066     2.94550E-03    -2.77524E-03         1.00343    -333.609E-03         1.00053     4.72355E-06     165.894E-06         1.00066     97.0295E-06     134.184E-06     26.3794E-06
             734              0.              0.              0.              0.     663.819E-06     65.4191E-06    -65.4191E-06     657.340E-06     100.070E-06     100.070E-06    -49.1059E-06    -49.9640E-06    -49.5349E-06    -49.5349E-06     100.070E-06     46.9083E-09     50.3940E-09    -50.3940E-09     100.070E-06     100.070E-06    -49.1059E-06    -49.9640E-06    -49.5349E-06    -49.5349E-06     100.070E-06     46.9083E-09     50.3940E-09    -50.3940E-09         1.00072         1.00035         1.00035     2.51936E-03    -3.22037E-03         1.00357    -333.216E-03         1.00065    -350.211E-06    -350.211E-06         1.00035     156.884E-06     168.542E-06    -168.542E-06
             735              0.              0.              0.              0.     659.762E-06     65.3102E-06    -33.6069E-06     655.661E-06     100.004E-06     100.004E-06    -49.0574E-06    -49.9468E-06    -49.5265E-06    -49.4777E-06     100.004E-06     32.4024E-09     86.3839E-09    -54.3377E-09     100.004E-06     100.004E-06    -49.0574E-06    -49.9468E-06    -49.5265E-06    -49.4777E-06     100.004E-06     32.4024E-09     86.3839E-09    -54.3377E-09         1.00006     999.801E-03     999.801E-03     2.73724E-03    -3.21202E-03         1.00301    -333.109E-03     999.990E-03    -400.088E-06    -74.1329E-06     999.800E-03     108.369E-06     288.909E-06    -181.732E-06
             736              0.              0.              0.              0.     659.762E-06     65.3102E-06     33.6069E-06     655.661E-06     100.004E-06     100.004E-06    -49.0574E-06    -49.9468E-06    -49.5265E-06    -49.4777E-06     100.004E-06    -32.4024E-09     86.3839E-09     54.3377E-09     100.004E-06     100.004E-06    -49.0574E-06    -49.9468E-06    -49.5265E-06    -49.4777E-06     100.004E-06    -32.4024E-09     86.3839E-09     54.3377E-09         1.00006     999.801E-03     999.801E-03     2.73724E-03    -3.21202E-03         1.00301    -333.109E-03     999.990E-03    -400.088E-06    -74.1329E-06     999.800E-03    -108.369E-06     288.909E-06     181.732E-06
             737              0.              0.              0.              0.     663.819E-06     65.4191E-06     65.4191E-06     657.340E-06     100.070E-06     100.070E-06    -49.1059E-06    -49.9640E-06    -49.5349E-06    -49.5349E-06     100.070E-06    -46.9083E-09     50.3940E-09     50.3940E-09     100.070E-06     100.070E-06    -49.1059E-06    -49.9640E-06    -49.5349E-06    -49.5349E-06     100.070E-06    -46.9083E-09     50.3940E-09     50.3940E-09         1.00072         1.00035         1.00035     2.51936E-03    -3.22037E-03         1.00357    -333.216E-03         1.00065    -350.211E-06    -350.211E-06         1.00035    -156.884E-06     168.542E-06     168.542E-06
             738              0.              0.              0.              0.     670.273E-06     64.7284E-06     132.409E-06     653.869E-06     100.057E-06     100.057E-06    -49.1006E-06    -49.9558E-06    -49.5402E-06    -49.5161E-06     100.057E-06    -29.0118E-09     40.1212E-09    -7.88744E-09     100.057E-06     100.057E-06    -49.1006E-06    -49.9558E-06    -49.5402E-06    -49.5161E-06     100.057E-06    -29.0118E-09     40.1212E-09    -7.88744E-09         1.00059         1.00066         1.00066     2.94550E-03    -2.77524E-03         1.00343    -333.609E-03         1.00053     4.72355E-06     165.894E-06         1.00066    -97.0295E-06     134.184E-06    -26.3794E-06
             739              0.              0.              0.              0.     573.450E-06     84.6482E-06    -114.528E-06     555.485E-06     100.072E-06     100.072E-06    -49.0888E-06    -49.9833E-06    -49.5453E-06    -49.5266E-06     100.071E-06     80.0524E-09    -173.054E-09     57.2973E-09     100.072E-06     100.072E-06    -49.0888E-06    -49.9833E-06    -49.5453E-06    -49.5266E-06     100.071E-06     80.0524E-09    -173.054E-09     57.2973E-09         1.00074         1.00036         1.00036     2.63120E-03    -3.35241E-03         1.00371    -333.213E-03         1.00067    -422.147E-06    -297.431E-06         1.00036     267.734E-06    -578.775E-06     191.630E-06
             740              0.              0.              0.              0.     564.348E-06     84.0112E-06    -84.0112E-06     551.700E-06     100.048E-06     100.048E-06    -49.0858E-06    -49.9630E-06    -49.5241E-06    -49.5241E-06     100.048E-06     77.4374E-09    -152.948E-09     152.948E-09     100.048E-06     100.048E-06    -49.0858E-06    -49.9630E-06    -49.5241E-06    -49.5241E-06     100.048E-06     77.4374E-09    -152.948E-09     152.948E-09         1.00051         1.00013         1.00013     2.57631E-03    -3.29095E-03         1.00342    -333.138E-03         1.00044    -355.463E-06    -355.463E-06         1.00012     258.988E-06    -511.532E-06     511.532E-06
             741              0.              0.              0.              0.     560.387E-06     83.9367E-06    -14.9225E-06     553.864E-06     100.121E-06     100.121E-06    -49.0241E-06    -50.0994E-06    -49.4908E-06    -49.6321E-06     100.120E-06     37.4112E-09    -145.583E-09     124.299E-09     100.121E-06     100.121E-06    -49.0241E-06    -50.0994E-06    -49.4908E-06    -49.6321E-06     100.120E-06     37.4112E-09    -145.583E-09     124.299E-09         1.00125     999.837E-03     999.837E-03     2.21402E-03    -4.97919E-03         1.00482    -332.357E-03         1.00115    -907.992E-06    -1.85293E-03     999.833E-03     125.121E-06    -486.899E-06     415.717E-06
             742              0.              0.              0.              0.     560.387E-06     83.9367E-06     14.9225E-06     553.864E-06     100.121E-06     100.121E-06    -49.0241E-06    -50.0994E-06    -49.4908E-06    -49.6321E-06     100.120E-06    -37.4112E-09    -145.583E-09    -124.299E-09     100.121E-06     100.121E-06    -49.0241E-06    -50.0994E-06    -49.4908E-06    -49.6321E-06     100.120E-06    -37.4112E-09    -145.583E-09    -124.299E-09         1.00125     999.837E-03     999.837E-03     2.21402E-03    -4.97919E-03         1.00482    -332.357E-03         1.00115    -907.992E-06    -1.85293E-03     999.833E-03    -125.121E-06    -486.899E-06    -415.717E-06
             743              0.              0.              0.              0.     564.348E-06     84.0112E-06     84.0112E-06     551.700E-06     100.048E-06     100.048E-06    -49.0858E-06    -49.9630E-06    -49.5241E-06    -49.5241E-06     100.048E-06    -77.4374E-09    -152.948E-09    -152.948E-09     100.048E-06     100.048E-06    -49.0858E-06    -49.9630E-06    -49.5241E-06    -49.5241E-06     100.048E-06    -77.4374E-09    -152.948E-09    -152.948E-09         1.00051         1.00013         1.00013     2.57631E-03    -3.29095E-03         1.00342    -333.138E-03         1.00044    -355.463E-06    -355.463E-06         1.00012    -258.988E-06    -511.532E-06    -511.532E-06
             744              0.              0.              0.              0.     573.450E-06     84.6482E-06     114.528E-06     555.485E-06     100.072E-06     100.072E-06    -49.0888E-06    -49.9833E-06    -49.5453E-06    -49.5266E-06     100.071E-06    -80.0524E-09    -173.054E-09    -57.2973E-09     100.072E-06     100.072E-06    -49.0888E-06    -49.9833E-06    -49.5453E-06    -49.5266E-06     100.071E-06    -80.0524E-09    -173.054E-09    -57.2973E-09         1.00074         1.00036         1.00036     2.63120E-03    -3.35241E-03         1.00371    -333.213E-03         1.00067    -422.147E-06    -297.431E-06         1.00036    -267.734E-06    -578.775E-06    -191.630E-06
             745              0.              0.              0.              0.     477.174E-06     63.6990E-06    -134.263E-06     453.443E-06     99.9114E-06     99.9114E-06    -48.8758E-06    -50.0451E-06    -49.5927E-06    -49.3234E-06     99.9066E-06    -8.14345E-09    -1.05652E-06     718.884E-09     99.9114E-06     99.9114E-06    -48.8758E-06    -50.0451E-06    -49.5927E-06    -49.3234E-06     99.9066E-06    -8.14345E-09    -1.05652E-06     718.884E-09     999.184E-03     996.258E-03     996.258E-03     1.02541E-03    -6.79583E-03         1.00305    -330.162E-03     999.060E-03    -3.76981E-03    -1.96842E-03     996.226E-03    -27.2356E-06    -3.53350E-03     2.40429E-03
             746              0.              0.              0.              0.     467.042E-06     64.1674E-06    -64.1674E-06     458.142E-06     100.222E-06     100.222E-06    -49.0503E-06    -50.1844E-06    -49.6143E-06    -49.6143E-06     100.216E-06    -6.16696E-09    -1.06133E-06     1.06133E-06     100.222E-06     100.222E-06    -49.0503E-06    -50.1844E-06    -49.6143E-06    -49.6143E-06     100.216E-06    -6.16696E-09    -1.06133E-06     1.06133E-06         1.00231     997.234E-03     997.234E-03    -1.24124E-03    -8.82710E-03         1.00606    -329.055E-03         1.00219    -5.01428E-03    -5.01428E-03     997.194E-03    -20.6253E-06    -3.54961E-03     3.54961E-03
             747              0.              0.              0.              0.     461.737E-06     64.1606E-06    -36.0574E-06     455.834E-06     100.804E-06     100.804E-06    -49.2472E-06    -50.5687E-06    -49.6562E-06    -50.1548E-06     100.799E-06    -2.09524E-09    -1.07265E-06     701.893E-09     100.804E-06     100.804E-06    -49.2472E-06    -50.5687E-06    -49.6562E-06    -50.1548E-06     100.799E-06    -2.09524E-09    -1.07265E-06     701.893E-09         1.00815         1.00132         1.00132    -2.36623E-03    -11.2059E-03         1.01252    -329.249E-03         1.00802    -5.10235E-03    -8.43728E-03         1.00129    -7.00749E-06    -3.58747E-03     2.34747E-03
             748              0.              0.              0.              0.     461.737E-06     64.1606E-06     36.0574E-06     455.834E-06     100.804E-06     100.804E-06    -49.2472E-06    -50.5687E-06    -49.6562E-06    -50.1548E-06     100.799E-06     2.09524E-09    -1.07265E-06    -701.893E-09     100.804E-06     100.804E-06    -49.2472E-06    -50.5687E-06    -49.6562E-06    -50.1548E-06     100.799E-06     2.09524E-09    -1.07265E-06    -701.893E-09         1.00815         1.00132         1.00132    -2.36623E-03    -11.2059E-03         1.01252    -329.249E-03         1.00802    -5.10235E-03    -8.43728E-03         1.00129     7.00749E-06    -3.58747E-03    -2.34747E-03
             749              0.              0.              0.              0.     467.042E-06     64.1674E-06     64.1674E-06     458.142E-06     100.222E-06     100.222E-06    -49.0503E-06    -50.1844E-06    -49.6143E-06    -49.6143E-06     100.216E-06     6.16696E-09    -1.06133E-06    -1.06133E-06     100.222E-06     100.222E-06    -49.0503E-06    -50.1844E-06    -49.6143E-06    -49.6143E-06     100.216E-06     6.16696E-09    -1.06133E-06    -1.06133E-06         1.00231     997.234E-03     997.234E-03    -1.24124E-03    -8.82710E-03         1.00606    -329.055E-03         1.00219    -5.01428E-03    -5.01428E-03     997.194E-03     20.6253E-06    -3.54961E-03    -3.54961E-03
             750              0.              0.              0.              0.     477.174E-06     63.6990E-06     134.263E-06     453.443E-06     99.9114E-06     99.9114E-06    -48.8758E-06    -50.0451E-06    -49.5927E-06    -49.3234E-06     99.9066E-06     8.14345E-09    -1.05652E-06    -718.884E-09     99.9114E-06     99.9114E-06    -48.8758E-06    -50.0451E-06    -49.5927E-06    -49.3234E-06     99.9066E-06     8.14345E-09    -1.05652E-06    -718.884E-09     999.184E-03     996.258E-03     996.258E-03     1.02541E-03    -6.79583E-03         1.00305    -330.162E-03     999.060E-03    -3.76981E-03    -1.96842E-03     996.226E-03     27.2356E-06    -3.53350E-03    -2.40429E-03
             751              0.              0.              0.              0.     384.798E-06     88.3959E-06    -114.525E-06     356.567E-06     99.2336E-06     99.2336E-06    -48.4943E-06    -49.7771E-06    -49.6610E-06    -48.5699E-06     99.1931E-06    -402.446E-09    -3.08173E-06     3.09465E-06     99.2336E-06     99.2336E-06    -48.4943E-06    -49.7771E-06    -49.6610E-06    -48.5699E-06     99.1931E-06    -402.446E-09    -3.08173E-06     3.09465E-06     992.481E-03     982.382E-03     982.382E-03    -5.76462E-03    -14.3451E-03     996.727E-03    -320.757E-03     992.347E-03    -13.5687E-03    -6.27017E-03     982.111E-03    -1.34597E-03    -10.3068E-03     10.3500E-03
             752              0.              0.              0.              0.     373.576E-06     88.0745E-06    -88.0745E-06     352.200E-06     100.519E-06     100.519E-06    -49.0623E-06    -50.4840E-06    -49.7524E-06    -49.7524E-06     100.478E-06    -524.619E-09    -3.19692E-06     3.19692E-06     100.519E-06     100.519E-06    -49.0623E-06    -50.4840E-06    -49.7524E-06    -49.7524E-06     100.478E-06    -524.619E-09    -3.19692E-06     3.19692E-06         1.00535     994.443E-03     994.443E-03    -6.10118E-03    -15.6108E-03         1.01005    -324.244E-03         1.00520    -10.7171E-03    -10.7171E-03     994.165E-03    -1.75458E-03    -10.6920E-03     10.6920E-03
             753              0.              0.              0.              0.     363.100E-06     88.1785E-06    -13.7778E-06     351.961E-06     102.121E-06     102.121E-06    -49.5724E-06    -51.5689E-06    -49.8689E-06    -51.2362E-06     102.085E-06    -323.396E-09    -3.51359E-06     1.64959E-06     102.121E-06     102.121E-06    -49.5724E-06    -51.5689E-06    -49.8689E-06    -51.2362E-06     102.085E-06    -323.396E-09    -3.51359E-06     1.64959E-06         1.02143         1.00751         1.00751    -7.15914E-03    -20.5138E-03         1.02803    -326.613E-03         1.02118    -9.14282E-03    -18.2881E-03         1.00727    -1.08159E-03    -11.7511E-03     5.51703E-03
             754              0.              0.              0.              0.     363.100E-06     88.1785E-06     13.7778E-06     351.961E-06     102.121E-06     102.121E-06    -49.5724E-06    -51.5689E-06    -49.8689E-06    -51.2362E-06     102.085E-06     323.396E-09    -3.51359E-06    -1.64959E-06     102.121E-06     102.121E-06    -49.5724E-06    -51.5689E-06    -49.8689E-06    -51.2362E-06     102.085E-06     323.396E-09    -3.51359E-06    -1.64959E-06         1.02143         1.00751         1.00751    -7.15914E-03    -20.5138E-03         1.02803    -326.613E-03         1.02118    -9.14282E-03    -18.2881E-03         1.00727     1.08159E-03    -11.7511E-03    -5.51703E-03
             755              0.              0.              0.              0.     373.576E-06     88.0745E-06     88.0745E-06     352.200E-06     100.519E-06     100.519E-06    -49.0623E-06    -50.4840E-06    -49.7524E-06    -49.7524E-06     100.478E-06     524.619E-09    -3.19692E-06    -3.19692E-06     100.519E-06     100.519E-06    -49.0623E-06    -50.4840E-06    -49.7524E-06    -49.7524E-06     100.478E-06     524.619E-09    -3.19692E-06    -3.19692E-06         1.00535     994.443E-03     994.443E-03    -6.10118E-03    -15.6108E-03         1.01005    -324.244E-03         1.00520    -10.7171E-03    -10.7171E-03     994.165E-03     1.75458E-03    -10.6920E-03    -10.6920E-03
             756              0.              0.              0.              0.     384.798E-06     88.3959E-06     114.525E-06     356.567E-06     99.2336E-06     99.2336E-06    -48.4943E-06    -49.7771E-06    -49.6610E-06    -48.5699E-06     99.1931E-06     402.446E-09    -3.08173E-06    -3.09465E-06     99.2336E-06     99.2336E-06    -48.4943E-06    -49.7771E-06    -49.6610E-06    -48.5699E-06     99.1931E-06     402.446E-09    -3.08173E-06    -3.09465E-06     992.481E-03     982.382E-03     982.382E-03    -5.76462E-03    -14.3451E-03     996.727E-03    -320.757E-03     992.347E-03    -13.5687E-03    -6.27017E-03     982.111E-03     1.34597E-03    -10.3068E-03    -10.3500E-03
             757              0.              0.              0.              0.     299.032E-06     66.0076E-06    -137.724E-06     257.090E-06     95.3840E-06     95.3840E-06    -45.7833E-06    -48.6604E-06    -48.0630E-06    -46.2317E-06     95.2351E-06    -1.90864E-06    -6.36733E-06     3.62658E-06     95.3840E-06     95.3840E-06    -45.7833E-06    -48.6604E-06    -48.0630E-06    -46.2317E-06     95.2351E-06    -1.90864E-06    -6.36733E-06     3.62658E-06     954.156E-03     949.393E-03     949.393E-03     5.12965E-03    -14.1151E-03     963.508E-03    -313.469E-03     953.344E-03    -10.1194E-03     2.12999E-03     948.397E-03    -6.38341E-03    -21.2954E-03     12.1290E-03
             758              0.              0.              0.              0.     271.025E-06     65.8641E-06    -65.8641E-06     254.516E-06     98.2167E-06     98.2167E-06    -46.9459E-06    -50.3183E-06    -48.4948E-06    -48.4948E-06     97.9422E-06    -2.52953E-06    -7.09126E-06     7.09126E-06     98.2167E-06     98.2167E-06    -46.9459E-06    -50.3183E-06    -48.4948E-06    -48.4948E-06     97.9422E-06    -2.52953E-06    -7.09126E-06     7.09126E-06     982.576E-03     972.365E-03     972.365E-03     1.37749E-03    -21.1800E-03     993.545E-03    -317.521E-03     981.646E-03    -8.98303E-03    -8.98303E-03     970.529E-03    -8.45996E-03    -23.7166E-03     23.7166E-03
             759              0.              0.              0.              0.     262.471E-06     67.8810E-06    -39.0773E-06     250.512E-06     103.684E-06     103.684E-06    -48.8538E-06    -53.8469E-06    -49.1637E-06    -53.2377E-06     103.385E-06    -1.57521E-06    -8.71885E-06     5.27796E-06     103.684E-06     103.684E-06    -48.8538E-06    -53.8469E-06    -49.1637E-06    -53.2377E-06     103.385E-06    -1.57521E-06    -8.71885E-06     5.27796E-06         1.03763         1.01929         1.01929    -1.03219E-03    -34.4308E-03         1.05372    -327.943E-03         1.03581    -3.10494E-03    -30.3564E-03         1.01729    -5.26826E-03    -29.1600E-03     17.6521E-03
             760              0.              0.              0.              0.     262.471E-06     67.8810E-06     39.0773E-06     250.512E-06     103.684E-06     103.684E-06    -48.8538E-06    -53.8469E-06    -49.1637E-06    -53.2377E-06     103.385E-06     1.57521E-06    -8.71885E-06    -5.27796E-06     103.684E-06     103.684E-06    -48.8538E-06    -53.8469E-06    -49.1637E-06    -53.2377E-06     103.385E-06     1.57521E-06    -8.71885E-06    -5.27796E-06         1.03763         1.01929         1.01929    -1.03219E-03    -34.4308E-03         1.05372    -327.943E-03         1.03581    -3.10494E-03    -30.3564E-03         1.01729     5.26826E-03    -29.1600E-03    -17.6521E-03
             761              0.              0.              0.              0.     271.025E-06     65.8641E-06     65.8641E-06     254.516E-06     98.2167E-06     98.2167E-06    -46.9459E-06    -50.3183E-06    -48.4948E-06    -48.4948E-06     97.9422E-06     2.52953E-06    -7.09126E-06    -7.09126E-06     98.2167E-06     98.2167E-06    -46.9459E-06    -50.3183E-06    -48.4948E-06    -48.4948E-06     97.9422E-06     2.52953E-06    -7.09126E-06    -7.09126E-06     982.576E-03     972.365E-03     972.365E-03     1.37749E-03    -21.1800E-03     993.545E-03    -317.521E-03     981.646E-03    -8.98303E-03    -8.98303E-03     970.529E-03     8.45996E-03    -23.7166E-03    -23.7166E-03
             762              0.              0.              0.              0.     299.032E-06     66.0076E-06     137.724E-06     257.090E-06     95.3840E-06     95.3840E-06    -45.7833E-06    -48.6604E-06    -48.0630E-06    -46.2317E-06     95.2351E-06     1.90864E-06    -6.36733E-06    -3.62658E-06     95.3840E-06     95.3840E-06    -45.7833E-06    -48.6604E-06    -48.0630E-06    -46.2317E-06     95.2351E-06     1.90864E-06    -6.36733E-06    -3.62658E-06     954.156E-03     949.393E-03     949.393E-03     5.12965E-03    -14.1151E-03     963.508E-03    -313.469E-03     953.344E-03    -10.1194E-03     2.12999E-03     948.397E-03     6.38341E-03    -21.2954E-03    -12.1290E-03
             763              0.              0.              0.              0.     221.841E-06     91.5519E-06    -107.738E-06     170.951E-06     94.3526E-06     94.3526E-06    -43.9678E-06    -49.5387E-06    -47.4620E-06    -45.5528E-06     93.8610E-06    -4.78328E-06    -3.97856E-06     8.78728E-06     94.3526E-06     94.3526E-06    -43.9678E-06    -49.5387E-06    -47.4620E-06    -45.5528E-06     93.8610E-06    -4.78328E-06    -3.97856E-06     8.78728E-06     944.480E-03     911.297E-03     911.297E-03    -13.9231E-03    -51.1869E-03     962.484E-03    -282.062E-03     942.593E-03    -37.2958E-03    -24.5256E-03     908.008E-03    -15.9976E-03    -13.3062E-03     29.3889E-03
             764              0.              0.              0.              0.     211.881E-06     91.9660E-06    -91.9660E-06     167.267E-06     98.9604E-06     98.9604E-06    -45.8540E-06    -52.1555E-06    -48.7039E-06    -48.7039E-06     98.3588E-06    -5.62378E-06    -4.89324E-06     4.89324E-06     98.9604E-06     98.9604E-06    -45.8540E-06    -52.1555E-06    -48.7039E-06    -48.7039E-06     98.3588E-06    -5.62378E-06    -4.89324E-06     4.89324E-06     990.465E-03     976.797E-03     976.797E-03     8.13909E-03    -34.0113E-03         1.01081    -316.975E-03     988.266E-03    -10.9240E-03    -10.9240E-03     972.773E-03    -18.8086E-03    -16.3654E-03     16.3654E-03
             765              0.              0.              0.              0.     177.034E-06     98.4262E-06    -18.1593E-06     146.026E-06     101.929E-06     101.929E-06    -45.4721E-06    -55.3711E-06    -50.5530E-06    -49.7560E-06     101.395E-06    -3.23214E-06    -6.58349E-06     499.603E-09     101.929E-06     101.929E-06    -45.4721E-06    -55.3711E-06    -50.5530E-06    -49.7560E-06     101.395E-06    -3.23214E-06    -6.58349E-06     499.603E-09         1.02116         1.04135         1.04135     55.3870E-03    -10.8274E-03         1.05218    -361.969E-03         1.01483     21.4010E-03     26.7320E-03         1.03777    -10.8098E-03    -22.0184E-03     1.67091E-03
             766              0.              0.              0.              0.     177.034E-06     98.4262E-06     18.1593E-06     146.026E-06     101.929E-06     101.929E-06    -45.4721E-06    -55.3711E-06    -50.5530E-06    -49.7560E-06     101.395E-06     3.23214E-06    -6.58349E-06    -499.603E-09     101.929E-06     101.929E-06    -45.4721E-06    -55.3711E-06    -50.5530E-06    -49.7560E-06     101.395E-06     3.23214E-06    -6.58349E-06    -499.603E-09         1.02116         1.04135         1.04135     55.3870E-03    -10.8274E-03         1.05218    -361.969E-03         1.01483     21.4010E-03     26.7320E-03         1.03777     10.8098E-03    -22.0184E-03    -1.67091E-03
             767              0.              0.              0.              0.     211.881E-06     91.9660E-06     91.9660E-06     167.267E-06     98.9604E-06     98.9604E-06    -45.8540E-06    -52.1555E-06    -48.7039E-06    -48.7039E-06     98.3588E-06     5.62378E-06    -4.89324E-06    -4.89324E-06     98.9604E-06     98.9604E-06    -45.8540E-06    -52.1555E-06    -48.7039E-06    -48.7039E-06     98.3588E-06     5.62378E-06    -4.89324E-06    -4.89324E-06     990.465E-03     976.797E-03     976.797E-03     8.13909E-03    -34.0113E-03         1.01081    -316.975E-03     988.266E-03    -10.9240E-03    -10.9240E-03     972.773E-03     18.8086E-03    -16.3654E-03    -16.3654E-03
             768              0.              0.              0.              0.     221.841E-06     91.5519E-06     107.738E-06     170.951E-06     94.3526E-06     94.3526E-06    -43.9678E-06    -49.5387E-06    -47.4620E-06    -45.5528E-06     93.8610E-06     4.78328E-06    -3.97856E-06    -8.78728E-06     94.3526E-06     94.3526E-06    -43.9678E-06    -49.5387E-06    -47.4620E-06    -45.5528E-06     93.8610E-06     4.78328E-06    -3.97856E-06    -8.78728E-06     944.480E-03     911.297E-03     911.297E-03    -13.9231E-03    -51.1869E-03     962.484E-03    -282.062E-03     942.593E-03    -37.2958E-03    -24.5256E-03     908.008E-03     15.9976E-03    -13.3062E-03    -29.3889E-03
             769              0.              0.              0.              0.     159.032E-06     47.8164E-06    -129.166E-06     79.5041E-06     89.7622E-06     89.7622E-06    -37.1677E-06    -51.3127E-06    -37.5361E-06    -43.5387E-06     82.3565E-06    -4.96199E-06     24.4754E-06    -24.2334E-06     89.7622E-06     89.7622E-06    -37.1677E-06    -51.3127E-06    -37.5361E-06    -43.5387E-06     82.3565E-06    -4.96199E-06     24.4754E-06    -24.2334E-06     903.652E-03         1.02482         1.02482     175.795E-03     81.1799E-03     943.645E-03    -427.267E-03     880.333E-03     173.331E-03     133.180E-03     975.288E-03    -16.5953E-03     81.8574E-03    -81.0481E-03
             770              0.              0.              0.              0.     72.6426E-06     47.2983E-06    -47.2983E-06     28.3318E-06     86.2679E-06     86.2679E-06    -35.3657E-06    -49.4667E-06    -38.8601E-06    -38.8601E-06     79.1558E-06    -5.48151E-06     25.0763E-06    -25.0763E-06     86.2679E-06     86.2679E-06    -35.3657E-06    -49.4667E-06    -38.8601E-06    -38.8601E-06     79.1558E-06    -5.48151E-06     25.0763E-06    -25.0763E-06     868.122E-03         1.05236         1.05236     238.753E-03     144.433E-03     907.924E-03    -478.514E-03     844.671E-03     215.379E-03     215.379E-03         1.00478    -18.3328E-03     83.8672E-03    -83.8672E-03
             771              0.              0.              0.              0.     67.0737E-06     55.0860E-06    -17.1167E-06     34.2262E-06     78.9183E-06     78.9183E-06    -30.6571E-06    -46.6855E-06    -40.6714E-06    -30.9660E-06     73.2132E-06    -3.00052E-06     26.3690E-06    -12.9596E-06     78.9183E-06     78.9183E-06    -30.6571E-06    -46.6855E-06    -40.6714E-06    -30.9660E-06     73.2132E-06    -3.00052E-06     26.3690E-06    -12.9596E-06     794.854E-03         1.04964         1.04964     316.691E-03     209.478E-03     840.159E-03    -525.269E-03     768.577E-03     249.706E-03     314.625E-03         1.01148    -10.0352E-03     88.1907E-03    -43.3431E-03
             772              0.              0.              0.              0.     67.0737E-06     55.0860E-06     17.1167E-06     34.2262E-06     78.9183E-06     78.9183E-06    -30.6571E-06    -46.6855E-06    -40.6714E-06    -30.9660E-06     73.2132E-06     3.00052E-06     26.3690E-06     12.9596E-06     78.9183E-06     78.9183E-06    -30.6571E-06    -46.6855E-06    -40.6714E-06    -30.9660E-06     73.2132E-06     3.00052E-06     26.3690E-06     12.9596E-06     794.854E-03         1.04964         1.04964     316.691E-03     209.478E-03     840.159E-03    -525.269E-03     768.577E-03     249.706E-03     314.625E-03         1.01148     10.0352E-03     88.1907E-03     43.3431E-03
             773              0.              0.              0.              0.     72.6426E-06     47.2983E-06     47.2983E-06     28.3318E-06     86.2679E-06     86.2679E-06    -35.3657E-06    -49.4667E-06    -38.8601E-06    -38.8601E-06     79.1558E-06     5.48151E-06     25.0763E-06     25.0763E-06     86.2679E-06     86.2679E-06    -35.3657E-06    -49.4667E-06    -38.8601E-06    -38.8601E-06     79.1558E-06     5.48151E-06     25.0763E-06     25.0763E-06     868.122E-03         1.05236         1.05236     238.753E-03     144.433E-03     907.924E-03    -478.514E-03     844.671E-03     215.379E-03     215.379E-03         1.00478     18.3328E-03     83.8672E-03     83.8672E-03
             774              0.              0.              0.              0.     159.032E-06     47.8164E-06     129.166E-06     79.5041E-06     89.7622E-06     89.7622E-06    -37.1677E-06    -51.3127E-06    -37.5361E-06    -43.5387E-06     82.3565E-06     4.96199E-06     24.4754E-06     24.2334E-06     89.7622E-06     89.7622E-06    -37.1677E-06    -51.3127E-06    -37.5361E-06    -43.5387E-06     82.3565E-06     4.96199E-06     24.4754E-06     24.2334E-06     903.652E-03         1.02482         1.02482     175.795E-03     81.1799E-03     943.645E-03    -427.267E-03     880.333E-03     173.331E-03     133.180E-03     975.288E-03     16.5953E-03     81.8574E-03     81.0481E-03
             775     687.399E-03    -134.134E-03     275.366E-03    -615.385E-03              0.     134.134E-39    -275.366E-39     615.385E-39     82.1461E-06     82.1461E-06    -29.2797E-06    -51.0416E-06    -26.6346E-06    -39.6326E-06     68.0921E-06    -3.52335E-06     48.6208E-06    -63.5138E-06     82.1461E-06     82.1461E-06    -29.2797E-06    -51.0416E-06    -26.6346E-06    -39.6326E-06     68.0921E-06    -3.52335E-06     48.6208E-06    -63.5138E-06     831.991E-03         1.15367         1.15367     408.351E-03     262.786E-03     890.888E-03    -608.270E-03     787.590E-03     426.044E-03     339.100E-03         1.05967    -11.7838E-03     162.612E-03    -212.421E-03
             776         1.00167    -275.661E-03     275.661E-03    -922.695E-03              0.     275.661E-39    -275.661E-39     922.695E-39     70.5220E-06     70.5220E-06    -23.8572E-06    -44.7620E-06    -27.5605E-06    -27.5605E-06     57.0239E-06    -3.82447E-06     50.3787E-06    -50.3787E-06     70.5220E-06     70.5220E-06    -23.8572E-06    -44.7620E-06    -27.5605E-06    -27.5605E-06     57.0239E-06    -3.82447E-06     50.3787E-06    -50.3787E-06     715.047E-03         1.10175         1.10175     470.455E-03     330.623E-03     771.131E-03    -634.277E-03     670.802E-03     445.683E-03     445.683E-03         1.01147    -12.7909E-03     168.491E-03    -168.491E-03
             777     910.686E-03    -291.926E-03     50.2461E-03    -861.164E-03              0.     291.926E-39    -50.2461E-39     861.164E-39     58.5110E-06     58.5110E-06    -18.4162E-06    -38.1270E-06    -28.7235E-06    -16.9432E-06     47.6344E-06    -2.06279E-06     53.7546E-06    -18.6218E-06     58.5110E-06     58.5110E-06    -18.4162E-06    -38.1270E-06    -28.7235E-06    -16.9432E-06     47.6344E-06    -2.06279E-06     53.7546E-06    -18.6218E-06     593.990E-03         1.04291         1.04291     528.344E-03     396.499E-03     646.408E-03    -655.917E-03     550.816E-03     459.399E-03     538.197E-03     970.154E-03    -6.89896E-03     179.781E-03    -62.2803E-03
             778     910.686E-03    -291.926E-03    -50.2461E-03    -861.164E-03              0.     291.926E-39     50.2461E-39     861.164E-39     58.5110E-06     58.5110E-06    -18.4162E-06    -38.1270E-06    -28.7235E-06    -16.9432E-06     47.6344E-06     2.06279E-06     53.7546E-06     18.6218E-06     58.5110E-06     58.5110E-06    -18.4162E-06    -38.1270E-06    -28.7235E-06    -16.9432E-06     47.6344E-06     2.06279E-06     53.7546E-06     18.6218E-06     593.990E-03         1.04291         1.04291     528.344E-03     396.499E-03     646.408E-03    -655.917E-03     550.816E-03     459.399E-03     538.197E-03     970.154E-03     6.89896E-03     179.781E-03     62.2803E-03
             779         1.00167    -275.661E-03    -275.661E-03    -922.695E-03              0.     275.661E-39     275.661E-39     922.695E-39     70.5220E-06     70.5220E-06    -23.8572E-06    -44.7620E-06    -27.5605E-06    -27.5605E-06     57.0239E-06     3.82447E-06     50.3787E-06     50.3787E-06     70.5220E-06     70.5220E-06    -23.8572E-06    -44.7620E-06    -27.5605E-06    -27.5605E-06     57.0239E-06     3.82447E-06     50.3787E-06     50.3787E-06     715.047E-03         1.10175         1.10175     470.455E-03     330.623E-03     771.131E-03    -634.277E-03     670.802E-03     445.683E-03     445.683E-03         1.01147     12.7909E-03     168.491E-03     168.491E-03
             780     687.399E-03    -134.134E-03    -275.366E-03    -615.385E-03              0.     134.134E-39     275.366E-39     615.385E-39     82.1461E-06     82.1461E-06    -29.2797E-06    -51.0416E-06    -26.6346E-06    -39.6326E-06     68.0921E-06     3.52335E-06     48.6208E-06     63.5138E-06     82.1461E-06     82.1461E-06    -29.2797E-06    -51.0416E-06    -26.6346E-06    -39.6326E-06     68.0921E-06     3.52335E-06     48.6208E-06     63.5138E-06     831.991E-03         1.15367         1.15367     408.351E-03     262.786E-03     890.888E-03    -608.270E-03     787.590E-03     426.044E-03     339.100E-03         1.05967     11.7838E-03     162.612E-03     212.421E-03
             781              0.              0.              0.              0.     2.46154E-03     127.397E-06    -127.397E-06     2.45493E-03     99.9795E-06     99.9795E-06    -49.4875E-06    -49.4914E-06    -49.4894E-06    -49.4894E-06     99.9795E-06     3.97159E-09     11.4556E-09    -11.4556E-09     99.9795E-06     99.9795E-06    -49.4875E-06    -49.4914E-06    -49.4894E-06    -49.4894E-06     99.9795E-06     3.97159E-09     11.4556E-09    -11.4556E-09     999.792E-03         1.00007         1.00007     292.277E-06     265.708E-06     999.806E-03    -333.543E-03     999.792E-03     278.994E-06     278.994E-06         1.00007     13.2829E-06     38.3129E-06    -38.3129E-06
             782              0.              0.              0.              0.     2.45896E-03     126.737E-06    -70.8113E-06     2.45467E-03     99.9856E-06     99.9856E-06    -49.4841E-06    -49.5013E-06    -49.4851E-06    -49.5003E-06     99.9856E-06     1.71283E-09     1.21713E-09    -4.55240E-09     99.9856E-06     99.9856E-06    -49.4841E-06    -49.5013E-06    -49.4851E-06    -49.5003E-06     99.9856E-06     1.71283E-09     1.21713E-09    -4.55240E-09     999.854E-03     999.987E-03     999.987E-03     190.182E-06     75.2598E-06     999.912E-03    -333.418E-03     999.854E-03     183.533E-06     81.9109E-06     999.987E-03     5.72854E-06     4.07067E-06    -15.2254E-06
             783              0.              0.              0.              0.     2.45823E-03     126.836E-06    -28.1020E-06     2.45480E-03     99.9862E-06     99.9862E-06    -49.4853E-06    -49.5006E-06    -49.4854E-06    -49.5004E-06     99.9862E-06    -272.960E-12    -442.653E-12     1.17538E-09     99.9862E-06     99.9862E-06    -49.4853E-06    -49.5006E-06    -49.4854E-06    -49.5004E-06     99.9862E-06    -272.960E-12    -442.653E-12     1.17538E-09     999.860E-03         1.00000         1.00000     193.964E-06     91.1940E-06     999.912E-03    -333.429E-03     999.860E-03     192.825E-06     92.3344E-06         1.00000    -912.910E-09    -1.48045E-06     3.93105E-06
             784              0.              0.              0.              0.     2.45823E-03     126.836E-06     28.1020E-06     2.45480E-03     99.9862E-06     99.9862E-06    -49.4853E-06    -49.5006E-06    -49.4854E-06    -49.5004E-06     99.9862E-06     272.960E-12    -442.653E-12    -1.17538E-09     99.9862E-06     99.9862E-06    -49.4853E-06    -49.5006E-06    -49.4854E-06    -49.5004E-06     99.9862E-06     272.960E-12    -442.653E-12    -1.17538E-09     999.860E-03         1.00000         1.00000     193.964E-06     91.1940E-06     999.912E-03    -333.429E-03     999.860E-03     192.825E-06     92.3344E-06         1.00000     912.910E-09    -1.48045E-06    -3.93105E-06
             785              0.              0.              0.              0.     2.45896E-03     126.737E-06     70.8113E-06     2.45467E-03     99.9856E-06     99.9856E-06    -49.4841E-06    -49.5013E-06    -49.4851E-06    -49.5003E-06     99.9856E-06    -1.71283E-09     1.21713E-09     4.55240E-09     99.9856E-06     99.9856E-06    -49.4841E-06    -49.5013E-06    -49.4851E-06    -49.5003E-06     99.9856E-06    -1.71283E-09     1.21713E-09     4.55240E-09     999.854E-03     999.987E-03     999.987E-03     190.182E-06     75.2598E-06     999.912E-03    -333.418E-03     999.854E-03     183.533E-06     81.9109E-06     999.987E-03    -5.72854E-06     4.07067E-06     15.2254E-06
             786              0.              0.              0.              0.     2.46154E-03     127.397E-06     127.397E-06     2.45493E-03     99.9795E-06     99.9795E-06    -49.4875E-06    -49.4914E-06    -49.4894E-06    -49.4894E-06     99.9795E-06    -3.97159E-09     11.4556E-09     11.4556E-09     99.9795E-06     99.9795E-06    -49.4875E-06    -49.4914E-06    -49.4894E-06    -49.4894E-06     99.9795E-06    -3.97159E-09     11.4556E-09     11.4556E-09     999.792E-03         1.00007         1.00007     292.277E-06     265.708E-06     999.806E-03    -333.543E-03     999.792E-03     278.994E-06     278.994E-06         1.00007    -13.2829E-06     38.3129E-06     38.3129E-06
             787              0.              0.              0.              0.     2.36099E-03     120.114E-06    -120.114E-06     2.35487E-03     100.032E-06     100.032E-06    -49.5133E-06    -49.5188E-06    -49.5161E-06    -49.5161E-06     100.032E-06    -1.51360E-09    -5.69499E-09     5.69499E-09     100.032E-06     100.032E-06    -49.5133E-06    -49.5188E-06    -49.5161E-06    -49.5161E-06     100.032E-06    -1.51360E-09    -5.69499E-09     5.69499E-09         1.00032         1.00003         1.00003    -271.083E-06    -307.768E-06         1.00034    -333.150E-03         1.00032    -289.422E-06    -289.422E-06         1.00003    -5.06221E-06    -19.0468E-06     19.0468E-06
             788              0.              0.              0.              0.     2.35919E-03     120.734E-06    -77.6844E-06     2.35482E-03     100.014E-06     100.014E-06    -49.4908E-06    -49.5234E-06    -49.5144E-06    -49.4998E-06     100.014E-06    -538.243E-12    -233.380E-12     1.22118E-09     100.014E-06     100.014E-06    -49.4908E-06    -49.5234E-06    -49.5144E-06    -49.4998E-06     100.014E-06    -538.243E-12    -233.380E-12     1.22118E-09         1.00014     999.999E-03     999.999E-03    -32.6874E-06    -250.454E-06         1.00025    -333.239E-03         1.00014    -190.455E-06    -92.6813E-06     999.999E-03    -1.80014E-06    -780.537E-09     4.08421E-06
             789              0.              0.              0.              0.     2.35803E-03     120.654E-06    -21.4032E-06     2.35484E-03     100.014E-06     100.014E-06    -49.4918E-06    -49.5224E-06    -49.5141E-06    -49.5001E-06     100.014E-06     218.558E-12     464.615E-12    -1.62632E-09     100.014E-06     100.014E-06    -49.4918E-06    -49.5224E-06    -49.5141E-06    -49.5001E-06     100.014E-06     218.558E-12     464.615E-12    -1.62632E-09         1.00014     999.995E-03     999.995E-03    -42.5241E-06    -247.237E-06         1.00024    -333.235E-03         1.00014    -191.687E-06    -98.0719E-06     999.995E-03     730.964E-09     1.55390E-06    -5.43918E-06
             790              0.              0.              0.              0.     2.35803E-03     120.654E-06     21.4032E-06     2.35484E-03     100.014E-06     100.014E-06    -49.4918E-06    -49.5224E-06    -49.5141E-06    -49.5001E-06     100.014E-06    -218.558E-12     464.615E-12     1.62632E-09     100.014E-06     100.014E-06    -49.4918E-06    -49.5224E-06    -49.5141E-06    -49.5001E-06     100.014E-06    -218.558E-12     464.615E-12     1.62632E-09         1.00014     999.995E-03     999.995E-03    -42.5241E-06    -247.237E-06         1.00024    -333.235E-03         1.00014    -191.687E-06    -98.0719E-06     999.995E-03    -730.964E-09     1.55390E-06     5.43918E-06
             791              0.              0.              0.              0.     2.35919E-03     120.734E-06     77.6844E-06     2.35482E-03     100.014E-06     100.014E-06    -49.4908E-06    -49.5234E-06    -49.5144E-06    -49.4998E-06     100.014E-06     538.243E-12    -233.380E-12    -1.22118E-09     100.014E-06     100.014E-06    -49.4908E-06    -49.5234E-06    -49.5144E-06    -49.4998E-06     100.014E-06     538.243E-12    -233.380E-12    -1.22118E-09         1.00014     999.999E-03     999.999E-03    -32.6874E-06    -250.454E-06         1.00025    -333.239E-03         1.00014    -190.455E-06    -92.6813E-06     999.999E-03     1.80014E-06    -780.537E-09    -4.08421E-06
             792              0.              0.              0.              0.     2.36099E-03     120.114E-06     120.114E-06     2.35487E-03     100.032E-06     100.032E-06    -49.5133E-06    -49.5188E-06    -49.5161E-06    -49.5161E-06     100.032E-06     1.51360E-09    -5.69499E-09    -5.69499E-09     100.032E-06     100.032E-06    -49.5133E-06    -49.5188E-06    -49.5161E-06    -49.5161E-06     100.032E-06     1.51360E-09    -5.69499E-09    -5.69499E-09         1.00032         1.00003         1.00003    -271.083E-06    -307.768E-06         1.00034    -333.150E-03         1.00032    -289.422E-06    -289.422E-06         1.00003     5.06221E-06    -19.0468E-06    -19.0468E-06
             793              0.              0.              0.              0.     2.26167E-03     127.417E-06    -127.417E-06     2.25448E-03     99.9704E-06     99.9704E-06    -49.4820E-06    -49.4879E-06    -49.4849E-06    -49.4849E-06     99.9704E-06    -1.09958E-09     459.716E-12    -459.716E-12     99.9704E-06     99.9704E-06    -49.4820E-06    -49.4879E-06    -49.4849E-06    -49.4849E-06     99.9704E-06    -1.09958E-09     459.716E-12    -459.716E-12     999.701E-03         1.00000         1.00000     323.083E-06     283.623E-06     999.721E-03    -333.537E-03     999.701E-03     303.359E-06     303.359E-06         1.00000    -3.67751E-06     1.53751E-06    -1.53751E-06
             794              0.              0.              0.              0.     2.25939E-03     126.817E-06    -70.7736E-06     2.25472E-03     99.9858E-06     99.9858E-06    -49.4620E-06    -49.5235E-06    -49.4857E-06    -49.4998E-06     99.9858E-06    -623.659E-12    -691.375E-12     624.293E-12     99.9858E-06     99.9858E-06    -49.4620E-06    -49.5235E-06    -49.4857E-06    -49.4998E-06     99.9858E-06    -623.659E-12    -691.375E-12     624.293E-12     999.856E-03         1.00001         1.00001     355.425E-06    -56.2494E-06         1.00006    -333.435E-03     999.856E-03     196.963E-06     102.223E-06         1.00001    -2.08582E-06    -2.31229E-06     2.08794E-06
             795              0.              0.              0.              0.     2.25834E-03     126.887E-06    -28.1391E-06     2.25460E-03     99.9856E-06     99.9856E-06    -49.4626E-06    -49.5227E-06    -49.4856E-06    -49.4997E-06     99.9856E-06    -73.8715E-12     111.290E-12     854.151E-12     99.9856E-06     99.9856E-06    -49.4626E-06    -49.5227E-06    -49.4856E-06    -49.4997E-06     99.9856E-06    -73.8715E-12     111.290E-12     854.151E-12     999.854E-03    1000.000E-03    1000.000E-03     346.109E-06    -55.4895E-06         1.00006    -333.430E-03     999.854E-03     192.580E-06     98.0449E-06    1000.000E-03    -247.062E-09     372.205E-09     2.85669E-06
             796              0.              0.              0.              0.     2.25834E-03     126.887E-06     28.1391E-06     2.25460E-03     99.9856E-06     99.9856E-06    -49.4626E-06    -49.5227E-06    -49.4856E-06    -49.4997E-06     99.9856E-06     73.8715E-12     111.290E-12    -854.151E-12     99.9856E-06     99.9856E-06    -49.4626E-06    -49.5227E-06    -49.4856E-06    -49.4997E-06     99.9856E-06     73.8715E-12     111.290E-12    -854.151E-12     999.854E-03    1000.000E-03    1000.000E-03     346.109E-06    -55.4895E-06         1.00006    -333.430E-03     999.854E-03     192.580E-06     98.0449E-06    1000.000E-03     247.062E-09     372.205E-09    -2.85669E-06
             797              0.              0.              0.              0.     2.25939E-03     126.817E-06     70.7736E-06     2.25472E-03     99.9858E-06     99.9858E-06    -49.4620E-06    -49.5235E-06    -49.4857E-06    -49.4998E-06     99.9858E-06     623.659E-12    -691.375E-12    -624.293E-12     99.9858E-06     99.9858E-06    -49.4620E-06    -49.5235E-06    -49.4857E-06    -49.4998E-06     99.9858E-06     623.659E-12    -691.375E-12    -624.293E-12     999.856E-03         1.00001         1.00001     355.425E-06    -56.2494E-06         1.00006    -333.435E-03     999.856E-03     196.963E-06     102.223E-06         1.00001     2.08582E-06    -2.31229E-06    -2.08794E-06
             798              0.              0.              0.              0.     2.26167E-03     127.417E-06     127.417E-06     2.25448E-03     99.9704E-06     99.9704E-06    -49.4820E-06    -49.4879E-06    -49.4849E-06    -49.4849E-06     99.9704E-06     1.09958E-09     459.716E-12     459.716E-12     99.9704E-06     99.9704E-06    -49.4820E-06    -49.4879E-06    -49.4849E-06    -49.4849E-06     99.9704E-06     1.09958E-09     459.716E-12     459.716E-12     999.701E-03         1.00000         1.00000     323.083E-06     283.623E-06     999.721E-03    -333.537E-03     999.701E-03     303.359E-06     303.359E-06         1.00000     3.67751E-06     1.53751E-06     1.53751E-06
             799              0.              0.              0.              0.     2.16189E-03     120.012E-06    -120.012E-06     2.15522E-03     100.030E-06     100.030E-06    -49.5138E-06    -49.5172E-06    -49.5155E-06    -49.5155E-06     100.030E-06     1.34700E-09    -182.053E-12     182.053E-12     100.030E-06     100.030E-06    -49.5138E-06    -49.5172E-06    -49.5155E-06    -49.5155E-06     100.030E-06     1.34700E-09    -182.053E-12     182.053E-12         1.00031     999.998E-03     999.998E-03    -297.607E-06    -320.701E-06         1.00032    -333.126E-03         1.00031    -309.148E-06    -309.148E-06     999.998E-03     4.50503E-06    -608.874E-09     608.874E-09
             800              0.              0.              0.              0.     2.15961E-03     120.608E-06    -77.8019E-06     2.15484E-03     100.015E-06     100.015E-06    -49.4631E-06    -49.5522E-06    -49.5150E-06    -49.5003E-06     100.015E-06     452.936E-12     102.689E-12     266.491E-12     100.015E-06     100.015E-06    -49.4631E-06    -49.5522E-06    -49.5150E-06    -49.5003E-06     100.015E-06     452.936E-12     102.689E-12     266.491E-12         1.00015    1000.000E-03    1000.000E-03     146.505E-06    -449.520E-06         1.00045    -333.232E-03         1.00015    -200.407E-06    -102.598E-06    1000.000E-03     1.51484E-06     343.442E-09     891.276E-09
             801              0.              0.              0.              0.     2.15850E-03     120.541E-06    -21.2825E-06     2.15502E-03     100.014E-06     100.014E-06    -49.4631E-06    -49.5515E-06    -49.5148E-06    -49.4998E-06     100.014E-06    -220.567E-12    -181.803E-12     175.465E-12     100.014E-06     100.014E-06    -49.4631E-06    -49.5515E-06    -49.5148E-06    -49.4998E-06     100.014E-06    -220.567E-12    -181.803E-12     175.465E-12         1.00015     999.998E-03     999.998E-03     149.014E-06    -442.705E-06         1.00044    -333.235E-03         1.00014    -197.056E-06    -96.6289E-06     999.998E-03    -737.681E-09    -608.035E-09     586.839E-09
             802              0.              0.              0.              0.     2.15850E-03     120.541E-06     21.2825E-06     2.15502E-03     100.014E-06     100.014E-06    -49.4631E-06    -49.5515E-06    -49.5148E-06    -49.4998E-06     100.014E-06     220.567E-12    -181.803E-12    -175.465E-12     100.014E-06     100.014E-06    -49.4631E-06    -49.5515E-06    -49.5148E-06    -49.4998E-06     100.014E-06     220.567E-12    -181.803E-12    -175.465E-12         1.00015     999.998E-03     999.998E-03     149.014E-06    -442.705E-06         1.00044    -333.235E-03         1.00014    -197.056E-06    -96.6289E-06     999.998E-03     737.681E-09    -608.035E-09    -586.839E-09
             803              0.              0.              0.              0.     2.15961E-03     120.608E-06     77.8019E-06     2.15484E-03     100.015E-06     100.015E-06    -49.4631E-06    -49.5522E-06    -49.5150E-06    -49.5003E-06     100.015E-06    -452.936E-12     102.689E-12    -266.491E-12     100.015E-06     100.015E-06    -49.4631E-06    -49.5522E-06    -49.5150E-06    -49.5003E-06     100.015E-06    -452.936E-12     102.689E-12    -266.491E-12         1.00015    1000.000E-03    1000.000E-03     146.505E-06    -449.520E-06         1.00045    -333.232E-03         1.00015    -200.407E-06    -102.598E-06    1000.000E-03    -1.51484E-06     343.442E-09    -891.276E-09
             804              0.              0.              0.              0.     2.16189E-03     120.012E-06     120.012E-06     2.15522E-03     100.030E-06     100.030E-06    -49.5138E-06    -49.5172E-06    -49.5155E-06    -49.5155E-06     100.030E-06    -1.34700E-09    -182.053E-12    -182.053E-12     100.030E-06     100.030E-06    -49.5138E-06    -49.5172E-06    -49.5155E-06    -49.5155E-06     100.030E-06    -1.34700E-09    -182.053E-12    -182.053E-12         1.00031     999.998E-03     999.998E-03    -297.607E-06    -320.701E-06         1.00032    -333.126E-03         1.00031    -309.148E-06    -309.148E-06     999.998E-03    -4.50503E-06    -608.874E-09    -608.874E-09
             805              0.              0.              0.              0.     2.06207E-03     127.595E-06    -127.595E-06     2.05416E-03     99.9691E-06     99.9691E-06    -49.4836E-06    -49.4848E-06    -49.4842E-06    -49.4842E-06     99.9691E-06    -1.22713E-09     17.4207E-12    -17.4207E-12     99.9691E-06     99.9691E-06    -49.4836E-06    -49.4848E-06    -49.4842E-06    -49.4842E-06     99.9691E-06    -1.22713E-09     17.4207E-12    -17.4207E-12     999.688E-03         1.00000         1.00000     321.052E-06     312.857E-06     999.692E-03    -333.546E-03     999.688E-03     316.961E-06     316.961E-06         1.00000    -4.10412E-06     58.2659E-09    -58.2659E-09
             806              0.              0.              0.              0.     2.05980E-03     126.993E-06    -70.5896E-06     2.05467E-03     99.9846E-06     99.9846E-06    -49.4333E-06    -49.5510E-06    -49.4846E-06    -49.4997E-06     99.9846E-06    -378.492E-12    -94.9507E-12    -90.5442E-12     99.9846E-06     99.9846E-06    -49.4333E-06    -49.5510E-06    -49.4846E-06    -49.4997E-06     99.9846E-06    -378.492E-12    -94.9507E-12    -90.5442E-12     999.845E-03         1.00000         1.00000     549.131E-06    -238.197E-06         1.00024    -333.437E-03     999.844E-03     205.952E-06     104.992E-06         1.00000    -1.26586E-06    -317.559E-09    -302.825E-09
             807              0.              0.              0.              0.     2.05854E-03     127.061E-06    -28.3264E-06     2.05442E-03     99.9851E-06     99.9851E-06    -49.4336E-06    -49.5512E-06    -49.4847E-06    -49.5001E-06     99.9851E-06     235.074E-12     857.980E-15    -81.8339E-12     99.9851E-06     99.9851E-06    -49.4336E-06    -49.5512E-06    -49.4847E-06    -49.5001E-06     99.9851E-06     235.074E-12     857.980E-15    -81.8339E-12     999.850E-03         1.00000         1.00000     545.805E-06    -240.379E-06         1.00024    -333.436E-03     999.849E-03     204.031E-06     101.402E-06         1.00000     786.200E-09     2.87037E-09    -273.692E-09
             808              0.              0.              0.              0.     2.05854E-03     127.061E-06     28.3264E-06     2.05442E-03     99.9851E-06     99.9851E-06    -49.4336E-06    -49.5512E-06    -49.4847E-06    -49.5001E-06     99.9851E-06    -235.074E-12     857.980E-15     81.8339E-12     99.9851E-06     99.9851E-06    -49.4336E-06    -49.5512E-06    -49.4847E-06    -49.5001E-06     99.9851E-06    -235.074E-12     857.980E-15     81.8339E-12     999.850E-03         1.00000         1.00000     545.805E-06    -240.379E-06         1.00024    -333.436E-03     999.849E-03     204.031E-06     101.402E-06         1.00000    -786.200E-09     2.87037E-09     273.692E-09
             809              0.              0.              0.              0.     2.05980E-03     126.993E-06     70.5896E-06     2.05467E-03     99.9846E-06     99.9846E-06    -49.4333E-06    -49.5510E-06    -49.4846E-06    -49.4997E-06     99.9846E-06     378.492E-12    -94.9507E-12     90.5442E-12     99.9846E-06     99.9846E-06    -49.4333E-06    -49.5510E-06    -49.4846E-06    -49.4997E-06     99.9846E-06     378.492E-12    -94.9507E-12     90.5442E-12     999.845E-03         1.00000         1.00000     549.131E-06    -238.197E-06         1.00024    -333.437E-03     999.844E-03     205.952E-06     104.992E-06         1.00000     1.26586E-06    -317.559E-09     302.825E-09
             810              0.              0.              0.              0.     2.06207E-03     127.595E-06     127.595E-06     2.05416E-03     99.9691E-06     99.9691E-06    -49.4836E-06    -49.4848E-06    -49.4842E-06    -49.4842E-06     99.9691E-06     1.22713E-09     17.4207E-12     17.4207E-12     99.9691E-06     99.9691E-06    -49.4836E-06    -49.4848E-06    -49.4842E-06    -49.4842E-06     99.9691E-06     1.22713E-09     17.4207E-12     17.4207E-12     999.688E-03         1.00000         1.00000     321.052E-06     312.857E-06     999.692E-03    -333.546E-03     999.688E-03     316.961E-06     316.961E-06         1.00000     4.10412E-06     58.2659E-09     58.2659E-09
             811              0.              0.              0.              0.     1.96286E-03     119.762E-06    -119.762E-06     1.95554E-03     100.032E-06     100.032E-06    -49.5156E-06    -49.5170E-06    -49.5163E-06    -49.5163E-06     100.032E-06     994.099E-12    -250.507E-12     250.507E-12     100.032E-06     100.032E-06    -49.5156E-06    -49.5170E-06    -49.5163E-06    -49.5163E-06     100.032E-06     994.099E-12    -250.507E-12     250.507E-12         1.00032     999.995E-03     999.995E-03    -323.138E-06    -332.120E-06         1.00033    -333.113E-03         1.00032    -327.623E-06    -327.623E-06     999.995E-03     3.32474E-06    -837.812E-09     837.812E-09
             812              0.              0.              0.              0.     1.96015E-03     120.377E-06    -78.0510E-06     1.95489E-03     100.016E-06     100.016E-06    -49.4338E-06    -49.5824E-06    -49.5160E-06    -49.5002E-06     100.016E-06     282.535E-12    -18.0749E-12     148.216E-12     100.016E-06     100.016E-06    -49.4338E-06    -49.5824E-06    -49.5160E-06    -49.5002E-06     100.016E-06     282.535E-12    -18.0749E-12     148.216E-12         1.00016    1000.000E-03    1000.000E-03     336.476E-06    -657.714E-06         1.00066    -333.226E-03         1.00016    -213.368E-06    -107.858E-06    1000.000E-03     944.935E-09    -60.4487E-09     495.702E-09
             813              0.              0.              0.              0.     1.95901E-03     120.305E-06    -21.0340E-06     1.95520E-03     100.015E-06     100.015E-06    -49.4338E-06    -49.5820E-06    -49.5159E-06    -49.4999E-06     100.015E-06    -214.514E-12     3.52918E-12     22.9621E-12     100.015E-06     100.015E-06    -49.4338E-06    -49.5820E-06    -49.5159E-06    -49.4999E-06     100.015E-06    -214.514E-12     3.52918E-12     22.9621E-12         1.00016     999.997E-03     999.997E-03     336.501E-06    -654.584E-06         1.00065    -333.226E-03         1.00015    -212.485E-06    -105.592E-06     999.997E-03    -717.438E-09     11.8034E-09     76.7959E-09
             814              0.              0.              0.              0.     1.95901E-03     120.305E-06     21.0340E-06     1.95520E-03     100.015E-06     100.015E-06    -49.4338E-06    -49.5820E-06    -49.5159E-06    -49.4999E-06     100.015E-06     214.514E-12     3.52918E-12    -22.9621E-12     100.015E-06     100.015E-06    -49.4338E-06    -49.5820E-06    -49.5159E-06    -49.4999E-06     100.015E-06     214.514E-12     3.52918E-12    -22.9621E-12         1.00016     999.997E-03     999.997E-03     336.501E-06    -654.584E-06         1.00065    -333.226E-03         1.00015    -212.485E-06    -105.592E-06     999.997E-03     717.438E-09     11.8034E-09    -76.7959E-09
             815              0.              0.              0.              0.     1.96015E-03     120.377E-06     78.0510E-06     1.95489E-03     100.016E-06     100.016E-06    -49.4338E-06    -49.5824E-06    -49.5160E-06    -49.5002E-06     100.016E-06    -282.535E-12    -18.0749E-12    -148.216E-12     100.016E-06     100.016E-06    -49.4338E-06    -49.5824E-06    -49.5160E-06    -49.5002E-06     100.016E-06    -282.535E-12    -18.0749E-12    -148.216E-12         1.00016    1000.000E-03    1000.000E-03     336.476E-06    -657.714E-06         1.00066    -333.226E-03         1.00016    -213.368E-06    -107.858E-06    1000.000E-03    -944.935E-09    -60.4487E-09    -495.702E-09
             816              0.              0.              0.              0.     1.96286E-03     119.762E-06     119.762E-06     1.95554E-03     100.032E-06     100.032E-06    -49.5156E-06    -49.5170E-06    -49.5163E-06    -49.5163E-06     100.032E-06    -994.099E-12    -250.507E-12    -250.507E-12     100.032E-06     100.032E-06    -49.5156E-06    -49.5170E-06    -49.5163E-06    -49.5163E-06     100.032E-06    -994.099E-12    -250.507E-12    -250.507E-12         1.00032     999.995E-03     999.995E-03    -323.138E-06    -332.120E-06         1.00033    -333.113E-03         1.00032    -327.623E-06    -327.623E-06     999.995E-03    -3.32474E-06    -837.812E-09    -837.812E-09
             817              0.              0.              0.              0.     1.86264E-03     127.918E-06    -127.918E-06     1.85383E-03     99.9666E-06     99.9666E-06    -49.4814E-06    -49.4846E-06    -49.4830E-06    -49.4830E-06     99.9666E-06    -804.357E-12     461.059E-12    -461.059E-12     99.9666E-06     99.9666E-06    -49.4814E-06    -49.4846E-06    -49.4830E-06    -49.4830E-06     99.9666E-06    -804.357E-12     461.059E-12    -461.059E-12     999.663E-03         1.00001         1.00001     352.380E-06     331.369E-06     999.674E-03    -333.563E-03     999.663E-03     341.882E-06     341.882E-06         1.00001    -2.69016E-06     1.54200E-06    -1.54200E-06
             818              0.              0.              0.              0.     1.86031E-03     127.283E-06    -70.2752E-06     1.85462E-03     99.9834E-06     99.9834E-06    -49.4006E-06    -49.5825E-06    -49.4833E-06    -49.4998E-06     99.9834E-06    -218.996E-12     44.8872E-12    -172.536E-12     99.9834E-06     99.9834E-06    -49.4006E-06    -49.5825E-06    -49.4833E-06    -49.4998E-06     99.9834E-06    -218.996E-12     44.8872E-12    -172.536E-12     999.834E-03         1.00000         1.00000     776.024E-06    -440.481E-06         1.00044    -333.445E-03     999.830E-03     223.169E-06     112.384E-06         1.00000    -732.428E-09     150.127E-09    -577.046E-09
             819              0.              0.              0.              0.     1.85883E-03     127.362E-06    -28.6373E-06     1.85424E-03     99.9837E-06     99.9837E-06    -49.4014E-06    -49.5820E-06    -49.4833E-06    -49.5001E-06     99.9837E-06     183.183E-12    -24.0323E-12     57.9930E-12     99.9837E-06     99.9837E-06    -49.4014E-06    -49.5820E-06    -49.4833E-06    -49.5001E-06     99.9837E-06     183.183E-12    -24.0323E-12     57.9930E-12     999.837E-03         1.00000         1.00000     771.287E-06    -437.334E-06         1.00044    -333.446E-03     999.833E-03     222.943E-06     111.017E-06         1.00000     612.651E-09    -80.3757E-09     193.956E-09
             820              0.              0.              0.              0.     1.85883E-03     127.362E-06     28.6373E-06     1.85424E-03     99.9837E-06     99.9837E-06    -49.4014E-06    -49.5820E-06    -49.4833E-06    -49.5001E-06     99.9837E-06    -183.183E-12    -24.0323E-12    -57.9929E-12     99.9837E-06     99.9837E-06    -49.4014E-06    -49.5820E-06    -49.4833E-06    -49.5001E-06     99.9837E-06    -183.183E-12    -24.0323E-12    -57.9929E-12     999.837E-03         1.00000         1.00000     771.287E-06    -437.334E-06         1.00044    -333.446E-03     999.833E-03     222.943E-06     111.017E-06         1.00000    -612.651E-09    -80.3757E-09    -193.956E-09
             821              0.              0.              0.              0.     1.86031E-03     127.283E-06     70.2752E-06     1.85462E-03     99.9834E-06     99.9834E-06    -49.4006E-06    -49.5825E-06    -49.4833E-06    -49.4998E-06     99.9834E-06     218.996E-12     44.8872E-12     172.536E-12     99.9834E-06     99.9834E-06    -49.4006E-06    -49.5825E-06    -49.4833E-06    -49.4998E-06     99.9834E-06     218.996E-12     44.8872E-12     172.536E-12     999.834E-03         1.00000         1.00000     776.024E-06    -440.481E-06         1.00044    -333.445E-03     999.830E-03     223.169E-06     112.384E-06         1.00000     732.428E-09     150.127E-09     577.046E-09
             822              0.              0.              0.              0.     1.86264E-03     127.918E-06     127.918E-06     1.85383E-03     99.9666E-06     99.9666E-06    -49.4814E-06    -49.4846E-06    -49.4830E-06    -49.4830E-06     99.9666E-06     804.357E-12     461.059E-12     461.059E-12     99.9666E-06     99.9666E-06    -49.4814E-06    -49.4846E-06    -49.4830E-06    -49.4830E-06     99.9666E-06     804.357E-12     461.059E-12     461.059E-12     999.663E-03         1.00001         1.00001     352.380E-06     331.369E-06     999.674E-03    -333.563E-03     999.663E-03     341.882E-06     341.882E-06         1.00001     2.69016E-06     1.54200E-06     1.54200E-06
             823              0.              0.              0.              0.     1.76397E-03     119.365E-06    -119.365E-06     1.75588E-03     100.035E-06     100.035E-06    -49.5156E-06    -49.5202E-06    -49.5179E-06    -49.5179E-06     100.035E-06     676.803E-12    -636.826E-12     636.826E-12     100.035E-06     100.035E-06    -49.5156E-06    -49.5202E-06    -49.5179E-06    -49.5179E-06     100.035E-06     676.803E-12    -636.826E-12     636.826E-12         1.00035     999.995E-03     999.995E-03    -344.095E-06    -375.014E-06         1.00037    -333.092E-03         1.00035    -359.547E-06    -359.547E-06     999.995E-03     2.26355E-06    -2.12985E-06     2.12985E-06
             824              0.              0.              0.              0.     1.76080E-03     120.026E-06    -78.4333E-06     1.75495E-03     100.017E-06     100.017E-06    -49.4006E-06    -49.6172E-06    -49.5177E-06    -49.5002E-06     100.017E-06     178.585E-12    -37.0344E-12     198.781E-12     100.017E-06     100.017E-06    -49.4006E-06    -49.6172E-06    -49.5177E-06    -49.5002E-06     100.017E-06     178.585E-12    -37.0344E-12     198.781E-12         1.00018    1000.000E-03    1000.000E-03     547.908E-06    -901.292E-06         1.00090    -333.215E-03         1.00017    -235.160E-06    -118.212E-06    1000.000E-03     597.276E-09    -123.859E-09     664.819E-09
             825              0.              0.              0.              0.     1.75961E-03     119.938E-06    -20.6579E-06     1.75540E-03     100.017E-06     100.017E-06    -49.4012E-06    -49.6163E-06    -49.5176E-06    -49.4999E-06     100.017E-06    -159.816E-12     42.7507E-12    -119.632E-12     100.017E-06     100.017E-06    -49.4012E-06    -49.6163E-06    -49.5176E-06    -49.4999E-06     100.017E-06    -159.816E-12     42.7507E-12    -119.632E-12         1.00018     999.997E-03     999.997E-03     542.959E-06    -895.669E-06         1.00089    -333.215E-03         1.00017    -235.387E-06    -117.314E-06     999.997E-03    -534.502E-09     142.980E-09    -400.107E-09
             826              0.              0.              0.              0.     1.75961E-03     119.938E-06     20.6579E-06     1.75540E-03     100.017E-06     100.017E-06    -49.4012E-06    -49.6163E-06    -49.5176E-06    -49.4999E-06     100.017E-06     159.816E-12     42.7507E-12     119.632E-12     100.017E-06     100.017E-06    -49.4012E-06    -49.6163E-06    -49.5176E-06    -49.4999E-06     100.017E-06     159.816E-12     42.7507E-12     119.632E-12         1.00018     999.997E-03     999.997E-03     542.959E-06    -895.669E-06         1.00089    -333.215E-03         1.00017    -235.387E-06    -117.314E-06     999.997E-03     534.502E-09     142.980E-09     400.107E-09
             827              0.              0.              0.              0.     1.76080E-03     120.026E-06     78.4333E-06     1.75495E-03     100.017E-06     100.017E-06    -49.4006E-06    -49.6172E-06    -49.5177E-06    -49.5002E-06     100.017E-06    -178.585E-12    -37.0344E-12    -198.781E-12     100.017E-06     100.017E-06    -49.4006E-06    -49.6172E-06    -49.5177E-06    -49.5002E-06     100.017E-06    -178.585E-12    -37.0344E-12    -198.781E-12         1.00018    1000.000E-03    1000.000E-03     547.908E-06    -901.292E-06         1.00090    -333.215E-03         1.00017    -235.160E-06    -118.212E-06    1000.000E-03    -597.275E-09    -123.859E-09    -664.819E-09
             828              0.              0.              0.              0.     1.76397E-03     119.365E-06     119.365E-06     1.75588E-03     100.035E-06     100.035E-06    -49.5156E-06    -49.5202E-06    -49.5179E-06    -49.5179E-06     100.035E-06    -676.803E-12    -636.826E-12    -636.826E-12     100.035E-06     100.035E-06    -49.5156E-06    -49.5202E-06    -49.5179E-06    -49.5179E-06     100.035E-06    -676.803E-12    -636.826E-12    -636.826E-12         1.00035     999.995E-03     999.995E-03    -344.095E-06    -375.014E-06         1.00037    -333.092E-03         1.00035    -359.547E-06    -359.547E-06     999.995E-03    -2.26355E-06    -2.12985E-06    -2.12985E-06
             829              0.              0.              0.              0.     1.66342E-03     128.391E-06    -128.391E-06     1.65348E-03     99.9629E-06     99.9629E-06    -49.4781E-06    -49.4840E-06    -49.4810E-06    -49.4810E-06     99.9629E-06    -608.760E-12     805.642E-12    -805.642E-12     99.9629E-06     99.9629E-06    -49.4781E-06    -49.4840E-06    -49.4810E-06    -49.4810E-06     99.9629E-06    -608.760E-12     805.642E-12    -805.642E-12     999.625E-03         1.00001         1.00001     400.333E-06     360.816E-06     999.645E-03    -333.589E-03     999.625E-03     380.583E-06     380.583E-06         1.00001    -2.03599E-06     2.69445E-06    -2.69445E-06
             830              0.              0.              0.              0.     1.66094E-03     127.700E-06    -69.8218E-06     1.65455E-03     99.9815E-06     99.9815E-06    -49.3639E-06    -49.6172E-06    -49.4813E-06    -49.4998E-06     99.9815E-06    -158.430E-12     32.8018E-12    -244.454E-12     99.9815E-06     99.9815E-06    -49.3639E-06    -49.6172E-06    -49.4813E-06    -49.4998E-06     99.9815E-06    -158.430E-12     32.8018E-12    -244.454E-12     999.815E-03         1.00000         1.00000     1.03458E-03    -659.958E-06         1.00066    -333.458E-03     999.809E-03     249.359E-06     125.275E-06         1.00000    -529.866E-09     109.705E-09    -817.571E-09
             831              0.              0.              0.              0.     1.65921E-03     127.799E-06    -29.0823E-06     1.65403E-03     99.9817E-06     99.9817E-06    -49.3649E-06    -49.6164E-06    -49.4813E-06    -49.5001E-06     99.9817E-06     145.950E-12    -41.3185E-12     158.367E-12     99.9817E-06     99.9817E-06    -49.3649E-06    -49.6164E-06    -49.4813E-06    -49.5001E-06     99.9817E-06     145.950E-12    -41.3185E-12     158.367E-12     999.818E-03         1.00000         1.00000     1.02835E-03    -653.707E-06         1.00066    -333.459E-03     999.811E-03     250.002E-06     124.651E-06         1.00000     488.128E-09    -138.189E-09     529.656E-09
             832              0.              0.              0.              0.     1.65921E-03     127.799E-06     29.0823E-06     1.65403E-03     99.9817E-06     99.9817E-06    -49.3649E-06    -49.6164E-06    -49.4813E-06    -49.5001E-06     99.9817E-06    -145.950E-12    -41.3185E-12    -158.367E-12     99.9817E-06     99.9817E-06    -49.3649E-06    -49.6164E-06    -49.4813E-06    -49.5001E-06     99.9817E-06    -145.950E-12    -41.3185E-12    -158.367E-12     999.818E-03         1.00000         1.00000     1.02835E-03    -653.707E-06         1.00066    -333.459E-03     999.811E-03     250.002E-06     124.651E-06         1.00000    -488.128E-09    -138.189E-09    -529.656E-09
             833              0.              0.              0.              0.     1.66094E-03     127.700E-06     69.8218E-06     1.65455E-03     99.9815E-06     99.9815E-06    -49.3639E-06    -49.6172E-06    -49.4813E-06    -49.4998E-06     99.9815E-06     158.430E-12     32.8018E-12     244.454E-12     99.9815E-06     99.9815E-06    -49.3639E-06    -49.6172E-06    -49.4813E-06    -49.4998E-06     99.9815E-06     158.430E-12     32.8018E-12     244.454E-12     999.815E-03         1.00000         1.00000     1.03458E-03    -659.958E-06         1.00066    -333.458E-03     999.809E-03     249.359E-06     125.275E-06         1.00000     529.866E-09     109.705E-09     817.571E-09
             834              0.              0.              0.              0.     1.66342E-03     128.391E-06     128.391E-06     1.65348E-03     99.9629E-06     99.9629E-06    -49.4781E-06    -49.4840E-06    -49.4810E-06    -49.4810E-06     99.9629E-06     608.760E-12     805.642E-12     805.642E-12     99.9629E-06     99.9629E-06    -49.4781E-06    -49.4840E-06    -49.4810E-06    -49.4810E-06     99.9629E-06     608.760E-12     805.642E-12     805.642E-12     999.625E-03         1.00001         1.00001     400.333E-06     360.816E-06     999.645E-03    -333.589E-03     999.625E-03     380.583E-06     380.583E-06         1.00001     2.03599E-06     2.69445E-06     2.69445E-06
             835              0.              0.              0.              0.     1.56530E-03     118.813E-06    -118.813E-06     1.55625E-03     100.040E-06     100.040E-06    -49.5166E-06    -49.5237E-06    -49.5202E-06    -49.5202E-06     100.040E-06     595.084E-12    -971.303E-12     971.303E-12     100.040E-06     100.040E-06    -49.5166E-06    -49.5237E-06    -49.5202E-06    -49.5202E-06     100.040E-06     595.084E-12    -971.303E-12     971.303E-12         1.00040     999.994E-03     999.994E-03    -381.325E-06    -428.896E-06         1.00042    -333.061E-03         1.00040    -405.101E-06    -405.101E-06     999.994E-03     1.99025E-06    -3.24850E-06     3.24850E-06
             836              0.              0.              0.              0.     1.56160E-03     119.538E-06    -78.9617E-06     1.55501E-03     100.020E-06     100.020E-06    -49.3639E-06    -49.6562E-06    -49.5200E-06    -49.5002E-06     100.020E-06     159.855E-12    -24.3126E-12     285.258E-12     100.020E-06     100.020E-06    -49.3639E-06    -49.6562E-06    -49.5200E-06    -49.5002E-06     100.020E-06     159.855E-12    -24.3126E-12     285.258E-12         1.00020    1000.000E-03    1000.000E-03     777.727E-06    -1.17722E-03         1.00118    -333.200E-03         1.00019    -265.884E-06    -133.592E-06    1000.000E-03     534.632E-09    -81.3143E-09     954.040E-09
             837              0.              0.              0.              0.     1.56033E-03     119.425E-06    -20.1399E-06     1.55562E-03     100.019E-06     100.019E-06    -49.3648E-06    -49.6551E-06    -49.5200E-06    -49.4999E-06     100.019E-06    -137.687E-12     47.4158E-12    -200.393E-12     100.019E-06     100.019E-06    -49.3648E-06    -49.6551E-06    -49.5200E-06    -49.4999E-06     100.019E-06    -137.687E-12     47.4158E-12    -200.393E-12         1.00020     999.997E-03     999.997E-03     770.559E-06    -1.17069E-03         1.00117    -333.199E-03         1.00019    -266.980E-06    -133.145E-06     999.997E-03    -460.490E-09     158.579E-09    -670.212E-09
             838              0.              0.              0.              0.     1.56033E-03     119.425E-06     20.1399E-06     1.55562E-03     100.019E-06     100.019E-06    -49.3648E-06    -49.6551E-06    -49.5200E-06    -49.4999E-06     100.019E-06     137.687E-12     47.4158E-12     200.393E-12     100.019E-06     100.019E-06    -49.3648E-06    -49.6551E-06    -49.5200E-06    -49.4999E-06     100.019E-06     137.687E-12     47.4158E-12     200.393E-12         1.00020     999.997E-03     999.997E-03     770.559E-06    -1.17069E-03         1.00117    -333.199E-03         1.00019    -266.980E-06    -133.145E-06     999.997E-03     460.490E-09     158.579E-09     670.212E-09
             839              0.              0.              0.              0.     1.56160E-03     119.538E-06     78.9617E-06     1.55501E-03     100.020E-06     100.020E-06    -49.3639E-06    -49.6562E-06    -49.5200E-06    -49.5002E-06     100.020E-06    -159.855E-12    -24.3126E-12    -285.258E-12     100.020E-06     100.020E-06    -49.3639E-06    -49.6562E-06    -49.5200E-06    -49.5002E-06     100.020E-06    -159.855E-12    -24.3126E-12    -285.258E-12         1.00020    1000.000E-03    1000.000E-03     777.727E-06    -1.17722E-03         1.00118    -333.200E-03         1.00019    -265.884E-06    -133.592E-06    1000.000E-03    -534.632E-09    -81.3143E-09    -954.040E-09
             840              0.              0.              0.              0.     1.56530E-03     118.813E-06     118.813E-06     1.55625E-03     100.040E-06     100.040E-06    -49.5166E-06    -49.5237E-06    -49.5202E-06    -49.5202E-06     100.040E-06    -595.084E-12    -971.303E-12    -971.303E-12     100.040E-06     100.040E-06    -49.5166E-06    -49.5237E-06    -49.5202E-06    -49.5202E-06     100.040E-06    -595.084E-12    -971.303E-12    -971.303E-12         1.00040     999.994E-03     999.994E-03    -381.325E-06    -428.896E-06         1.00042    -333.061E-03         1.00040    -405.101E-06    -405.101E-06     999.994E-03    -1.99025E-06    -3.24850E-06    -3.24850E-06
             841              0.              0.              0.              0.     1.46449E-03     129.027E-06    -129.027E-06     1.45307E-03     99.9577E-06     99.9577E-06    -49.4743E-06    -49.4826E-06    -49.4784E-06    -49.4784E-06     99.9577E-06    -614.277E-12     1.12799E-09    -1.12799E-09     99.9577E-06     99.9577E-06    -49.4743E-06    -49.4826E-06    -49.4784E-06    -49.4784E-06     99.9577E-06    -614.277E-12     1.12799E-09    -1.12799E-09     999.573E-03         1.00001         1.00001     461.099E-06     405.442E-06     999.601E-03    -333.624E-03     999.573E-03     433.282E-06     433.282E-06         1.00001    -2.05444E-06     3.77253E-06    -3.77253E-06
             842              0.              0.              0.              0.     1.46177E-03     128.262E-06    -69.2140E-06     1.45448E-03     99.9788E-06     99.9788E-06    -49.3223E-06    -49.6561E-06    -49.4786E-06    -49.4998E-06     99.9788E-06    -160.224E-12     840.217E-15    -276.223E-12     99.9788E-06     99.9788E-06    -49.3223E-06    -49.6561E-06    -49.4786E-06    -49.4998E-06     99.9788E-06    -160.224E-12     840.217E-15    -276.223E-12     999.790E-03         1.00000         1.00000     1.33047E-03    -902.567E-06         1.00090    -333.476E-03     999.779E-03     284.832E-06     143.086E-06         1.00000    -535.867E-09     2.80852E-09    -923.825E-09
             843              0.              0.              0.              0.     1.45976E-03     128.391E-06    -29.6779E-06     1.45380E-03     99.9791E-06     99.9791E-06    -49.3235E-06    -49.6552E-06    -49.4786E-06    -49.5001E-06     99.9791E-06     146.914E-12    -64.0354E-12     287.770E-12     99.9791E-06     99.9791E-06    -49.3235E-06    -49.6552E-06    -49.4786E-06    -49.5001E-06     99.9791E-06     146.914E-12    -64.0354E-12     287.770E-12     999.793E-03         1.00000         1.00000     1.32392E-03    -895.065E-06         1.00090    -333.477E-03     999.782E-03     286.381E-06     142.487E-06         1.00000     491.352E-09    -214.168E-09     962.442E-09
             844              0.              0.              0.              0.     1.45976E-03     128.391E-06     29.6779E-06     1.45380E-03     99.9791E-06     99.9791E-06    -49.3235E-06    -49.6552E-06    -49.4786E-06    -49.5001E-06     99.9791E-06    -146.914E-12    -64.0354E-12    -287.770E-12     99.9791E-06     99.9791E-06    -49.3235E-06    -49.6552E-06    -49.4786E-06    -49.5001E-06     99.9791E-06    -146.914E-12    -64.0354E-12    -287.770E-12     999.793E-03         1.00000         1.00000     1.32392E-03    -895.065E-06         1.00090    -333.477E-03     999.782E-03     286.381E-06     142.487E-06         1.00000    -491.352E-09    -214.168E-09    -962.442E-09
             845              0.              0.              0.              0.     1.46177E-03     128.262E-06     69.2140E-06     1.45448E-03     99.9788E-06     99.9788E-06    -49.3223E-06    -49.6561E-06    -49.4786E-06    -49.4998E-06     99.9788E-06     160.224E-12     840.217E-15     276.223E-12     99.9788E-06     99.9788E-06    -49.3223E-06    -49.6561E-06    -49.4786E-06    -49.4998E-06     99.9788E-06     160.224E-12     840.217E-15     276.223E-12     999.790E-03         1.00000         1.00000     1.33047E-03    -902.567E-06         1.00090    -333.476E-03     999.779E-03     284.832E-06     143.086E-06         1.00000     535.867E-09     2.80852E-09     923.825E-09
             846              0.              0.              0.              0.     1.46449E-03     129.027E-06     129.027E-06     1.45307E-03     99.9577E-06     99.9577E-06    -49.4743E-06    -49.4826E-06    -49.4784E-06    -49.4784E-06     99.9577E-06     614.277E-12     1.12799E-09     1.12799E-09     99.9577E-06     99.9577E-06    -49.4743E-06    -49.4826E-06    -49.4784E-06    -49.4784E-06     99.9577E-06     614.277E-12     1.12799E-09     1.12799E-09     999.573E-03         1.00001         1.00001     461.099E-06     405.442E-06     999.601E-03    -333.624E-03     999.573E-03     433.282E-06     433.282E-06         1.00001     2.05444E-06     3.77253E-06     3.77253E-06
             847              0.              0.              0.              0.     1.36692E-03     118.088E-06    -118.088E-06     1.35668E-03     100.045E-06     100.045E-06    -49.5183E-06    -49.5280E-06    -49.5231E-06    -49.5231E-06     100.045E-06     680.864E-12    -1.52719E-09     1.52719E-09     100.045E-06     100.045E-06    -49.5183E-06    -49.5280E-06    -49.5231E-06    -49.5231E-06     100.045E-06     680.864E-12    -1.52719E-09     1.52719E-09         1.00046     999.992E-03     999.992E-03    -433.885E-06    -498.210E-06         1.00049    -333.020E-03         1.00046    -466.034E-06    -466.034E-06     999.992E-03     2.27714E-06    -5.10767E-06     5.10767E-06
             848              0.              0.              0.              0.     1.36263E-03     118.897E-06    -79.6543E-06     1.35509E-03     100.023E-06     100.023E-06    -49.3224E-06    -49.7008E-06    -49.5230E-06    -49.5003E-06     100.023E-06     162.034E-12    -207.400E-12     514.821E-12     100.023E-06     100.023E-06    -49.3224E-06    -49.7008E-06    -49.5230E-06    -49.5003E-06     100.023E-06     162.034E-12    -207.400E-12     514.821E-12         1.00023     999.999E-03     999.999E-03     1.03440E-03    -1.49671E-03         1.00150    -333.179E-03         1.00022    -307.139E-06    -155.148E-06     999.999E-03     541.918E-09    -693.646E-09     1.72181E-06
             849              0.              0.              0.              0.     1.36120E-03     118.749E-06    -19.4619E-06     1.35587E-03     100.023E-06     100.023E-06    -49.3234E-06    -49.6997E-06    -49.5230E-06    -49.5000E-06     100.023E-06    -178.399E-12    -175.723E-12    -248.776E-12     100.023E-06     100.023E-06    -49.3234E-06    -49.6997E-06    -49.5230E-06    -49.5000E-06     100.023E-06    -178.399E-12    -175.723E-12    -248.776E-12         1.00023     999.996E-03     999.996E-03     1.02644E-03    -1.49065E-03         1.00149    -333.177E-03         1.00022    -309.198E-06    -155.001E-06     999.996E-03    -596.651E-09    -587.701E-09    -832.028E-09
             850              0.              0.              0.              0.     1.36120E-03     118.749E-06     19.4619E-06     1.35587E-03     100.023E-06     100.023E-06    -49.3234E-06    -49.6997E-06    -49.5230E-06    -49.5000E-06     100.023E-06     178.399E-12    -175.723E-12     248.776E-12     100.023E-06     100.023E-06    -49.3234E-06    -49.6997E-06    -49.5230E-06    -49.5000E-06     100.023E-06     178.399E-12    -175.723E-12     248.776E-12         1.00023     999.996E-03     999.996E-03     1.02644E-03    -1.49065E-03         1.00149    -333.177E-03         1.00022    -309.198E-06    -155.001E-06     999.996E-03     596.651E-09    -587.701E-09     832.028E-09
             851              0.              0.              0.              0.     1.36263E-03     118.897E-06     79.6543E-06     1.35509E-03     100.023E-06     100.023E-06    -49.3224E-06    -49.7008E-06    -49.5230E-06    -49.5003E-06     100.023E-06    -162.034E-12    -207.400E-12    -514.821E-12     100.023E-06     100.023E-06    -49.3224E-06    -49.7008E-06    -49.5230E-06    -49.5003E-06     100.023E-06    -162.034E-12    -207.400E-12    -514.821E-12         1.00023     999.999E-03     999.999E-03     1.03440E-03    -1.49671E-03         1.00150    -333.179E-03         1.00022    -307.139E-06    -155.148E-06     999.999E-03    -541.918E-09    -693.646E-09    -1.72181E-06
             852              0.              0.              0.              0.     1.36692E-03     118.088E-06     118.088E-06     1.35668E-03     100.045E-06     100.045E-06    -49.5183E-06    -49.5280E-06    -49.5231E-06    -49.5231E-06     100.045E-06    -680.864E-12    -1.52719E-09    -1.52719E-09     100.045E-06     100.045E-06    -49.5183E-06    -49.5280E-06    -49.5231E-06    -49.5231E-06     100.045E-06    -680.864E-12    -1.52719E-09    -1.52719E-09         1.00046     999.992E-03     999.992E-03    -433.885E-06    -498.210E-06         1.00049    -333.020E-03         1.00046    -466.034E-06    -466.034E-06     999.992E-03    -2.27714E-06    -5.10767E-06    -5.10767E-06
             853              0.              0.              0.              0.     1.26601E-03     129.847E-06    -129.847E-06     1.25262E-03     99.9506E-06     99.9506E-06    -49.4692E-06    -49.4804E-06    -49.4748E-06    -49.4748E-06     99.9506E-06    -902.914E-12     1.46802E-09    -1.46802E-09     99.9506E-06     99.9506E-06    -49.4692E-06    -49.4804E-06    -49.4748E-06    -49.4748E-06     99.9506E-06    -902.914E-12     1.46802E-09    -1.46802E-09     999.501E-03         1.00000         1.00000     539.927E-06     465.013E-06     999.539E-03    -333.670E-03     999.501E-03     502.485E-06     502.485E-06         1.00000    -3.01978E-06     4.90977E-06    -4.90977E-06
             854              0.              0.              0.              0.     1.26287E-03     128.990E-06    -68.4313E-06     1.25440E-03     99.9751E-06     99.9751E-06    -49.2740E-06    -49.7006E-06    -49.4750E-06    -49.4996E-06     99.9751E-06    -279.887E-12    -81.8332E-12    -98.2667E-12     99.9751E-06     99.9751E-06    -49.2740E-06    -49.7006E-06    -49.4750E-06    -49.4996E-06     99.9751E-06    -279.887E-12    -81.8332E-12    -98.2667E-12     999.754E-03     999.998E-03     999.998E-03     1.67629E-03    -1.17725E-03         1.00118    -333.499E-03     999.737E-03     332.102E-06     166.966E-06     999.998E-03    -936.076E-09    -273.689E-09    -328.653E-09
             855              0.              0.              0.              0.     1.26053E-03     129.158E-06    -30.4437E-06     1.25353E-03     99.9756E-06     99.9756E-06    -49.2752E-06    -49.7000E-06    -49.4748E-06    -49.5003E-06     99.9756E-06     171.570E-12    -80.4405E-12     635.743E-12     99.9756E-06     99.9756E-06    -49.2752E-06    -49.7000E-06    -49.4748E-06    -49.5003E-06     99.9756E-06     171.570E-12    -80.4405E-12     635.743E-12     999.760E-03         1.00000         1.00000     1.67069E-03    -1.17075E-03         1.00117    -333.501E-03     999.742E-03     335.049E-06     164.907E-06         1.00000     573.814E-09    -269.032E-09     2.12623E-06
             856              0.              0.              0.              0.     1.26053E-03     129.158E-06     30.4437E-06     1.25353E-03     99.9756E-06     99.9756E-06    -49.2752E-06    -49.7000E-06    -49.4748E-06    -49.5003E-06     99.9756E-06    -171.570E-12    -80.4405E-12    -635.743E-12     99.9756E-06     99.9756E-06    -49.2752E-06    -49.7000E-06    -49.4748E-06    -49.5003E-06     99.9756E-06    -171.570E-12    -80.4405E-12    -635.743E-12     999.760E-03         1.00000         1.00000     1.67069E-03    -1.17075E-03         1.00117    -333.501E-03     999.742E-03     335.049E-06     164.907E-06         1.00000    -573.814E-09    -269.032E-09    -2.12623E-06
             857              0.              0.              0.              0.     1.26287E-03     128.990E-06     68.4313E-06     1.25440E-03     99.9751E-06     99.9751E-06    -49.2740E-06    -49.7006E-06    -49.4750E-06    -49.4996E-06     99.9751E-06     279.887E-12    -81.8332E-12     98.2667E-12     99.9751E-06     99.9751E-06    -49.2740E-06    -49.7006E-06    -49.4750E-06    -49.4996E-06     99.9751E-06     279.887E-12    -81.8332E-12     98.2667E-12     999.754E-03     999.998E-03     999.998E-03     1.67629E-03    -1.17725E-03         1.00118    -333.499E-03     999.737E-03     332.102E-06     166.966E-06     999.998E-03     936.076E-09    -273.689E-09     328.653E-09
             858              0.              0.              0.              0.     1.26601E-03     129.847E-06     129.847E-06     1.25262E-03     99.9506E-06     99.9506E-06    -49.4692E-06    -49.4804E-06    -49.4748E-06    -49.4748E-06     99.9506E-06     902.914E-12     1.46802E-09     1.46802E-09     99.9506E-06     99.9506E-06    -49.4692E-06    -49.4804E-06    -49.4748E-06    -49.4748E-06     99.9506E-06     902.914E-12     1.46802E-09     1.46802E-09     999.501E-03         1.00000         1.00000     539.927E-06     465.013E-06     999.539E-03    -333.670E-03     999.501E-03     502.485E-06     502.485E-06         1.00000     3.01978E-06     4.90977E-06     4.90977E-06
             859              0.              0.              0.              0.     1.16897E-03     117.164E-06    -117.164E-06     1.15717E-03     100.053E-06     100.053E-06    -49.5203E-06    -49.5334E-06    -49.5268E-06    -49.5268E-06     100.053E-06     965.707E-12    -2.26384E-09     2.26384E-09     100.053E-06     100.053E-06    -49.5203E-06    -49.5334E-06    -49.5268E-06    -49.5268E-06     100.053E-06     965.707E-12    -2.26384E-09     2.26384E-09         1.00053     999.986E-03     999.986E-03    -501.567E-06    -588.987E-06         1.00057    -332.965E-03         1.00053    -545.258E-06    -545.258E-06     999.986E-03     3.22979E-06    -7.57138E-06     7.57138E-06
             860              0.              0.              0.              0.     1.16400E-03     118.076E-06    -80.5340E-06     1.15519E-03     100.026E-06     100.026E-06    -49.2741E-06    -49.7529E-06    -49.5268E-06    -49.5002E-06     100.026E-06    -26.7134E-12    -614.997E-12     883.893E-12     100.026E-06     100.026E-06    -49.2741E-06    -49.7529E-06    -49.5268E-06    -49.5002E-06     100.026E-06    -26.7134E-12    -614.997E-12     883.893E-12         1.00028     999.994E-03     999.994E-03     1.32788E-03    -1.87482E-03         1.00187    -333.149E-03         1.00025    -362.334E-06    -184.584E-06     999.994E-03    -89.3428E-09    -2.05685E-06     2.95616E-06
             861              0.              0.              0.              0.     1.16230E-03     117.884E-06    -18.6030E-06     1.15616E-03     100.027E-06     100.027E-06    -49.2749E-06    -49.7523E-06    -49.5271E-06    -49.5000E-06     100.027E-06    -509.567E-12    -1.10156E-09    -248.030E-12     100.027E-06     100.027E-06    -49.2749E-06    -49.7523E-06    -49.5271E-06    -49.5000E-06     100.027E-06    -509.567E-12    -1.10156E-09    -248.030E-12         1.00028     999.993E-03     999.993E-03     1.32149E-03    -1.87187E-03         1.00187    -333.148E-03         1.00025    -366.063E-06    -184.300E-06     999.993E-03    -1.70424E-06    -3.68414E-06    -829.531E-09
             862              0.              0.              0.              0.     1.16230E-03     117.884E-06     18.6030E-06     1.15616E-03     100.027E-06     100.027E-06    -49.2749E-06    -49.7523E-06    -49.5271E-06    -49.5000E-06     100.027E-06     509.567E-12    -1.10156E-09     248.030E-12     100.027E-06     100.027E-06    -49.2749E-06    -49.7523E-06    -49.5271E-06    -49.5000E-06     100.027E-06     509.567E-12    -1.10156E-09     248.030E-12         1.00028     999.993E-03     999.993E-03     1.32149E-03    -1.87187E-03         1.00187    -333.148E-03         1.00025    -366.063E-06    -184.300E-06     999.993E-03     1.70424E-06    -3.68414E-06     829.531E-09
             863              0.              0.              0.              0.     1.16400E-03     118.076E-06     80.5340E-06     1.15519E-03     100.026E-06     100.026E-06    -49.2741E-06    -49.7529E-06    -49.5268E-06    -49.5002E-06     100.026E-06     26.7134E-12    -614.997E-12    -883.893E-12     100.026E-06     100.026E-06    -49.2741E-06    -49.7529E-06    -49.5268E-06    -49.5002E-06     100.026E-06     26.7134E-12    -614.997E-12    -883.893E-12         1.00028     999.994E-03     999.994E-03     1.32788E-03    -1.87482E-03         1.00187    -333.149E-03         1.00025    -362.334E-06    -184.584E-06     999.994E-03     89.3428E-09    -2.05685E-06    -2.95616E-06
             864              0.              0.              0.              0.     1.16897E-03     117.164E-06     117.164E-06     1.15717E-03     100.053E-06     100.053E-06    -49.5203E-06    -49.5334E-06    -49.5268E-06    -49.5268E-06     100.053E-06    -965.707E-12    -2.26384E-09    -2.26384E-09     100.053E-06     100.053E-06    -49.5203E-06    -49.5334E-06    -49.5268E-06    -49.5268E-06     100.053E-06    -965.707E-12    -2.26384E-09    -2.26384E-09         1.00053     999.986E-03     999.986E-03    -501.567E-06    -588.987E-06         1.00057    -332.965E-03         1.00053    -545.258E-06    -545.258E-06     999.986E-03    -3.22979E-06    -7.57138E-06    -7.57138E-06
             865              0.              0.              0.              0.     1.06825E-03     130.881E-06    -130.881E-06     1.05210E-03     99.9416E-06     99.9416E-06    -49.4620E-06    -49.4784E-06    -49.4702E-06    -49.4702E-06     99.9416E-06    -2.27687E-09     2.46034E-09    -2.46034E-09     99.9416E-06     99.9416E-06    -49.4620E-06    -49.4784E-06    -49.4702E-06    -49.4702E-06     99.9416E-06    -2.27687E-09     2.46034E-09    -2.46034E-09     999.410E-03         1.00000         1.00000     645.297E-06     536.197E-06     999.464E-03    -333.727E-03     999.410E-03     590.770E-06     590.770E-06         1.00000    -7.61496E-06     8.22855E-06    -8.22855E-06
             866              0.              0.              0.              0.     1.06441E-03     129.911E-06    -67.4475E-06     1.05429E-03     99.9700E-06     99.9700E-06    -49.2167E-06    -49.7527E-06    -49.4702E-06    -49.4992E-06     99.9700E-06    -791.553E-12     452.011E-12    -1.85284E-09     99.9700E-06     99.9700E-06    -49.2167E-06    -49.7527E-06    -49.4702E-06    -49.4992E-06     99.9700E-06    -791.553E-12     452.011E-12    -1.85284E-09     999.707E-03     999.998E-03     999.998E-03     2.09367E-03    -1.49203E-03         1.00149    -333.533E-03     999.678E-03     398.028E-06     203.651E-06     999.998E-03    -2.64733E-06     1.51174E-06    -6.19678E-06
             867              0.              0.              0.              0.     1.06169E-03     130.132E-06    -31.4021E-06     1.05321E-03     99.9694E-06     99.9694E-06    -49.2174E-06    -49.7515E-06    -49.4697E-06    -49.4992E-06     99.9694E-06     346.884E-12     1.34196E-09    -622.669E-12     99.9694E-06     99.9694E-06    -49.2174E-06    -49.7515E-06    -49.4697E-06    -49.4992E-06     99.9694E-06     346.884E-12     1.34196E-09    -622.669E-12     999.701E-03    1000.000E-03    1000.000E-03     2.09461E-03    -1.47791E-03         1.00148    -333.539E-03     999.673E-03     407.043E-06     209.679E-06    1000.000E-03     1.16015E-06     4.48815E-06    -2.08251E-06
             868              0.              0.              0.              0.     1.06169E-03     130.132E-06     31.4021E-06     1.05321E-03     99.9694E-06     99.9694E-06    -49.2174E-06    -49.7515E-06    -49.4697E-06    -49.4992E-06     99.9694E-06    -346.884E-12     1.34196E-09     622.669E-12     99.9694E-06     99.9694E-06    -49.2174E-06    -49.7515E-06    -49.4697E-06    -49.4992E-06     99.9694E-06    -346.884E-12     1.34196E-09     622.669E-12     999.701E-03    1000.000E-03    1000.000E-03     2.09461E-03    -1.47791E-03         1.00148    -333.539E-03     999.673E-03     407.043E-06     209.679E-06    1000.000E-03    -1.16015E-06     4.48815E-06     2.08251E-06
             869              0.              0.              0.              0.     1.06441E-03     129.911E-06     67.4475E-06     1.05429E-03     99.9700E-06     99.9700E-06    -49.2167E-06    -49.7527E-06    -49.4702E-06    -49.4992E-06     99.9700E-06     791.553E-12     452.011E-12     1.85284E-09     99.9700E-06     99.9700E-06    -49.2167E-06    -49.7527E-06    -49.4702E-06    -49.4992E-06     99.9700E-06     791.553E-12     452.011E-12     1.85284E-09     999.707E-03     999.998E-03     999.998E-03     2.09367E-03    -1.49203E-03         1.00149    -333.533E-03     999.678E-03     398.028E-06     203.651E-06     999.998E-03     2.64733E-06     1.51174E-06     6.19678E-06
             870              0.              0.              0.              0.     1.06825E-03     130.881E-06     130.881E-06     1.05210E-03     99.9416E-06     99.9416E-06    -49.4620E-06    -49.4784E-06    -49.4702E-06    -49.4702E-06     99.9416E-06     2.27687E-09     2.46034E-09     2.46034E-09     99.9416E-06     99.9416E-06    -49.4620E-06    -49.4784E-06    -49.4702E-06    -49.4702E-06     99.9416E-06     2.27687E-09     2.46034E-09     2.46034E-09     999.410E-03         1.00000         1.00000     645.297E-06     536.197E-06     999.464E-03    -333.727E-03     999.410E-03     590.770E-06     590.770E-06         1.00000     7.61496E-06     8.22855E-06     8.22855E-06
             871              0.              0.              0.              0.     971.692E-06     116.004E-06    -116.004E-06     957.743E-06     100.065E-06     100.065E-06    -49.5221E-06    -49.5439E-06    -49.5330E-06    -49.5330E-06     100.065E-06     3.15046E-09     5.40073E-09    -5.40073E-09     100.065E-06     100.065E-06    -49.5221E-06    -49.5439E-06    -49.5330E-06    -49.5330E-06     100.065E-06     3.15046E-09     5.40073E-09    -5.40073E-09         1.00065         1.00004         1.00004    -543.459E-06    -688.857E-06         1.00073    -332.935E-03         1.00065    -616.137E-06    -616.137E-06         1.00004     10.5367E-06     18.0626E-06    -18.0626E-06
             872              0.              0.              0.              0.     965.907E-06     117.040E-06    -81.6239E-06     955.309E-06     100.031E-06     100.031E-06    -49.2149E-06    -49.8172E-06    -49.5333E-06    -49.4988E-06     100.031E-06     313.699E-12     7.46508E-09    -5.28826E-09     100.031E-06     100.031E-06    -49.2149E-06    -49.8172E-06    -49.5333E-06    -49.4988E-06     100.031E-06     313.699E-12     7.46508E-09    -5.28826E-09         1.00033         1.00002         1.00002     1.71660E-03    -2.31227E-03         1.00233    -333.141E-03         1.00029    -413.099E-06    -182.534E-06         1.00002     1.04916E-06     24.9668E-06    -17.6865E-06
             873              0.              0.              0.              0.     963.765E-06     116.786E-06    -17.5348E-06     956.502E-06     100.030E-06     100.030E-06    -49.2144E-06    -49.8160E-06    -49.5342E-06    -49.4962E-06     100.030E-06    -1.26153E-09     4.89637E-09    -2.58790E-09     100.030E-06     100.030E-06    -49.2144E-06    -49.8160E-06    -49.5342E-06    -49.4962E-06     100.030E-06    -1.26153E-09     4.89637E-09    -2.58790E-09         1.00031         1.00000         1.00000     1.71082E-03    -2.31333E-03         1.00231    -333.133E-03         1.00028    -428.324E-06    -174.151E-06         1.00000    -4.21916E-06     16.3758E-06    -8.65518E-06
             874              0.              0.              0.              0.     963.765E-06     116.786E-06     17.5348E-06     956.502E-06     100.030E-06     100.030E-06    -49.2144E-06    -49.8160E-06    -49.5342E-06    -49.4962E-06     100.030E-06     1.26153E-09     4.89637E-09     2.58790E-09     100.030E-06     100.030E-06    -49.2144E-06    -49.8160E-06    -49.5342E-06    -49.4962E-06     100.030E-06     1.26153E-09     4.89637E-09     2.58790E-09         1.00031         1.00000         1.00000     1.71082E-03    -2.31333E-03         1.00231    -333.133E-03         1.00028    -428.324E-06    -174.151E-06         1.00000     4.21916E-06     16.3758E-06     8.65518E-06
             875              0.              0.              0.              0.     965.907E-06     117.040E-06     81.6239E-06     955.309E-06     100.031E-06     100.031E-06    -49.2149E-06    -49.8172E-06    -49.5333E-06    -49.4988E-06     100.031E-06    -313.699E-12     7.46508E-09     5.28826E-09     100.031E-06     100.031E-06    -49.2149E-06    -49.8172E-06    -49.5333E-06    -49.4988E-06     100.031E-06    -313.699E-12     7.46508E-09     5.28826E-09         1.00033         1.00002         1.00002     1.71660E-03    -2.31227E-03         1.00233    -333.141E-03         1.00029    -413.099E-06    -182.534E-06         1.00002    -1.04916E-06     24.9668E-06     17.6865E-06
             876              0.              0.              0.              0.     971.692E-06     116.004E-06     116.004E-06     957.743E-06     100.065E-06     100.065E-06    -49.5221E-06    -49.5439E-06    -49.5330E-06    -49.5330E-06     100.065E-06    -3.15046E-09     5.40073E-09     5.40073E-09     100.065E-06     100.065E-06    -49.5221E-06    -49.5439E-06    -49.5330E-06    -49.5330E-06     100.065E-06    -3.15046E-09     5.40073E-09     5.40073E-09         1.00065         1.00004         1.00004    -543.459E-06    -688.857E-06         1.00073    -332.935E-03         1.00065    -616.137E-06    -616.137E-06         1.00004    -10.5367E-06     18.0626E-06     18.0626E-06
             877              0.              0.              0.              0.     871.732E-06     132.163E-06    -132.163E-06     851.459E-06     99.9498E-06     99.9498E-06    -49.4592E-06    -49.4891E-06    -49.4742E-06    -49.4742E-06     99.9498E-06    -5.05641E-09     10.4185E-09    -10.4185E-09     99.9498E-06     99.9498E-06    -49.4592E-06    -49.4891E-06    -49.4742E-06    -49.4742E-06     99.9498E-06    -5.05641E-09     10.4185E-09    -10.4185E-09     999.492E-03         1.00016         1.00016     768.945E-06     568.664E-06     999.592E-03    -333.833E-03     999.492E-03     668.831E-06     668.831E-06         1.00016    -16.9111E-06     34.8444E-06    -34.8444E-06
             878              0.              0.              0.              0.     866.679E-06     131.049E-06    -66.2201E-06     854.150E-06     99.9761E-06     99.9761E-06    -49.1522E-06    -49.8231E-06    -49.4727E-06    -49.5026E-06     99.9761E-06     1.15344E-09     8.09296E-09    -24.5123E-09     99.9761E-06     99.9761E-06    -49.1522E-06    -49.8231E-06    -49.4727E-06    -49.5026E-06     99.9761E-06     1.15344E-09     8.09296E-09    -24.5123E-09     999.772E-03         1.00012         1.00012     2.60758E-03    -1.87971E-03         1.00200    -333.616E-03     999.728E-03     463.941E-06     263.979E-06         1.00012     3.85766E-06     27.0668E-06    -81.9811E-06
             879              0.              0.              0.              0.     863.515E-06     131.351E-06    -32.5805E-06     852.844E-06     99.9567E-06     99.9567E-06    -49.1430E-06    -49.8129E-06    -49.4700E-06    -49.4858E-06     99.9567E-06     3.68165E-09     14.8193E-09    -19.3031E-09     99.9567E-06     99.9567E-06    -49.1430E-06    -49.8129E-06    -49.4700E-06    -49.4858E-06     99.9567E-06     3.68165E-09     14.8193E-09    -19.3031E-09     999.577E-03         1.00000         1.00000     2.68161E-03    -1.79962E-03         1.00180    -333.629E-03     999.534E-03     493.986E-06     388.067E-06         1.00000     12.3132E-06     49.5629E-06    -64.5589E-06
             880              0.              0.              0.              0.     863.515E-06     131.351E-06     32.5805E-06     852.844E-06     99.9567E-06     99.9567E-06    -49.1430E-06    -49.8129E-06    -49.4700E-06    -49.4858E-06     99.9567E-06    -3.68165E-09     14.8193E-09     19.3031E-09     99.9567E-06     99.9567E-06    -49.1430E-06    -49.8129E-06    -49.4700E-06    -49.4858E-06     99.9567E-06    -3.68165E-09     14.8193E-09     19.3031E-09     999.577E-03         1.00000         1.00000     2.68161E-03    -1.79962E-03         1.00180    -333.629E-03     999.534E-03     493.986E-06     388.067E-06         1.00000    -12.3132E-06     49.5629E-06     64.5589E-06
             881              0.              0.              0.              0.     866.679E-06     131.049E-06     66.2201E-06     854.150E-06     99.9761E-06     99.9761E-06    -49.1522E-06    -49.8231E-06    -49.4727E-06    -49.5026E-06     99.9761E-06    -1.15344E-09     8.09296E-09     24.5123E-09     99.9761E-06     99.9761E-06    -49.1522E-06    -49.8231E-06    -49.4727E-06    -49.5026E-06     99.9761E-06    -1.15344E-09     8.09296E-09     24.5123E-09     999.772E-03         1.00012         1.00012     2.60758E-03    -1.87971E-03         1.00200    -333.616E-03     999.728E-03     463.941E-06     263.979E-06         1.00012    -3.85766E-06     27.0668E-06     81.9811E-06
             882              0.              0.              0.              0.     871.732E-06     132.163E-06     132.163E-06     851.459E-06     99.9498E-06     99.9498E-06    -49.4592E-06    -49.4891E-06    -49.4742E-06    -49.4742E-06     99.9498E-06     5.05641E-09     10.4185E-09     10.4185E-09     99.9498E-06     99.9498E-06    -49.4592E-06    -49.4891E-06    -49.4742E-06    -49.4742E-06     99.9498E-06     5.05641E-09     10.4185E-09     10.4185E-09     999.492E-03         1.00016         1.00016     768.945E-06     568.664E-06     999.592E-03    -333.833E-03     999.492E-03     668.831E-06     668.831E-06         1.00016     16.9111E-06     34.8444E-06     34.8444E-06
             883              0.              0.              0.              0.     775.499E-06     114.569E-06    -114.569E-06     758.384E-06     100.108E-06     100.108E-06    -49.5261E-06    -49.5827E-06    -49.5544E-06    -49.5544E-06     100.108E-06     21.6550E-09     54.8141E-09    -54.8141E-09     100.108E-06     100.108E-06    -49.5261E-06    -49.5827E-06    -49.5544E-06    -49.5544E-06     100.108E-06     21.6550E-09     54.8141E-09    -54.8141E-09         1.00109         1.00058         1.00058    -322.529E-06    -701.496E-06         1.00128    -333.184E-03         1.00109    -511.979E-06    -511.979E-06         1.00058     72.4248E-06     183.325E-06    -183.325E-06
             884              0.              0.              0.              0.     768.749E-06     115.767E-06    -82.9348E-06     755.444E-06     100.049E-06     100.049E-06    -49.1401E-06    -49.9091E-06    -49.5521E-06    -49.4971E-06     100.049E-06     15.9986E-09     64.3090E-09    -41.6790E-09     100.049E-06     100.049E-06    -49.1401E-06    -49.9091E-06    -49.5521E-06    -49.4971E-06     100.049E-06     15.9986E-09     64.3090E-09    -41.6790E-09         1.00051         1.00036         1.00036     2.44052E-03    -2.70385E-03         1.00307    -333.366E-03         1.00046    -315.471E-06     52.3028E-06         1.00036     53.5070E-06     215.080E-06    -139.395E-06
             885              0.              0.              0.              0.     765.872E-06     115.376E-06    -16.1901E-06     756.959E-06     100.032E-06     100.032E-06    -49.1389E-06    -49.8929E-06    -49.5500E-06    -49.4818E-06     100.032E-06     5.17109E-09     65.2705E-09    -14.2720E-09     100.032E-06     100.032E-06    -49.1389E-06    -49.8929E-06    -49.5500E-06    -49.4818E-06     100.032E-06     5.17109E-09     65.2705E-09    -14.2720E-09         1.00034         1.00015         1.00015     2.34936E-03    -2.69387E-03         1.00284    -333.267E-03         1.00028    -400.223E-06     55.8605E-06         1.00015     17.2946E-06     218.296E-06    -47.7325E-06
             886              0.              0.              0.              0.     765.872E-06     115.376E-06     16.1901E-06     756.959E-06     100.032E-06     100.032E-06    -49.1389E-06    -49.8929E-06    -49.5500E-06    -49.4818E-06     100.032E-06    -5.17109E-09     65.2705E-09     14.2720E-09     100.032E-06     100.032E-06    -49.1389E-06    -49.8929E-06    -49.5500E-06    -49.4818E-06     100.032E-06    -5.17109E-09     65.2705E-09     14.2720E-09         1.00034         1.00015         1.00015     2.34936E-03    -2.69387E-03         1.00284    -333.267E-03         1.00028    -400.223E-06     55.8605E-06         1.00015    -17.2946E-06     218.296E-06     47.7325E-06
             887              0.              0.              0.              0.     768.749E-06     115.767E-06     82.9348E-06     755.444E-06     100.049E-06     100.049E-06    -49.1401E-06    -49.9091E-06    -49.5521E-06    -49.4971E-06     100.049E-06    -15.9986E-09     64.3090E-09     41.6790E-09     100.049E-06     100.049E-06    -49.1401E-06    -49.9091E-06    -49.5521E-06    -49.4971E-06     100.049E-06    -15.9986E-09     64.3090E-09     41.6790E-09         1.00051         1.00036         1.00036     2.44052E-03    -2.70385E-03         1.00307    -333.366E-03         1.00046    -315.471E-06     52.3028E-06         1.00036    -53.5070E-06     215.080E-06     139.395E-06
             888              0.              0.              0.              0.     775.499E-06     114.569E-06     114.569E-06     758.384E-06     100.108E-06     100.108E-06    -49.5261E-06    -49.5827E-06    -49.5544E-06    -49.5544E-06     100.108E-06    -21.6550E-09     54.8141E-09     54.8141E-09     100.108E-06     100.108E-06    -49.5261E-06    -49.5827E-06    -49.5544E-06    -49.5544E-06     100.108E-06    -21.6550E-09     54.8141E-09     54.8141E-09         1.00109         1.00058         1.00058    -322.529E-06    -701.496E-06         1.00128    -333.184E-03         1.00109    -511.979E-06    -511.979E-06         1.00058    -72.4248E-06     183.325E-06     183.325E-06
             889              0.              0.              0.              0.     677.448E-06     133.756E-06    -133.756E-06     650.503E-06     100.048E-06     100.048E-06    -49.4881E-06    -49.5575E-06    -49.5228E-06    -49.5228E-06     100.048E-06     8.96728E-09    -3.00954E-09     3.00954E-09     100.048E-06     100.048E-06    -49.4881E-06    -49.5575E-06    -49.5228E-06    -49.5228E-06     100.048E-06     8.96728E-09    -3.00954E-09     3.00954E-09         1.00047         1.00094         1.00094     704.830E-06     240.994E-06         1.00070    -333.963E-03         1.00047     472.945E-06     472.945E-06         1.00094     29.9909E-06    -10.0653E-06     10.0653E-06
             890              0.              0.              0.              0.     670.273E-06     132.409E-06    -64.7284E-06     653.869E-06     100.057E-06     100.057E-06    -49.1006E-06    -49.9558E-06    -49.5161E-06    -49.5402E-06     100.057E-06     29.0118E-09    -7.88744E-09    -40.1212E-09     100.057E-06     100.057E-06    -49.1006E-06    -49.9558E-06    -49.5161E-06    -49.5402E-06     100.057E-06     29.0118E-09    -7.88744E-09    -40.1212E-09         1.00059         1.00066         1.00066     2.94550E-03    -2.77524E-03         1.00343    -333.609E-03         1.00053     165.894E-06     4.72355E-06         1.00066     97.0295E-06    -26.3794E-06    -134.184E-06
             891              0.              0.              0.              0.     666.557E-06     132.845E-06    -34.0714E-06     652.296E-06     99.9984E-06     99.9984E-06    -49.0645E-06    -49.9331E-06    -49.5107E-06    -49.4868E-06     99.9983E-06     24.5282E-09     13.6221E-09    -41.6259E-09     99.9984E-06     99.9984E-06    -49.0645E-06    -49.9331E-06    -49.5107E-06    -49.4868E-06     99.9983E-06     24.5282E-09     13.6221E-09    -41.6259E-09         1.00000         1.00024         1.00024     3.16287E-03    -2.64726E-03         1.00289    -333.585E-03     999.936E-03     177.913E-06     338.033E-06         1.00024     82.0340E-06     45.5587E-06    -139.217E-06
             892              0.              0.              0.              0.     666.557E-06     132.845E-06     34.0714E-06     652.296E-06     99.9984E-06     99.9984E-06    -49.0645E-06    -49.9331E-06    -49.5107E-06    -49.4868E-06     99.9983E-06    -24.5282E-09     13.6221E-09     41.6259E-09     99.9984E-06     99.9984E-06    -49.0645E-06    -49.9331E-06    -49.5107E-06    -49.4868E-06     99.9983E-06    -24.5282E-09     13.6221E-09     41.6259E-09         1.00000         1.00024         1.00024     3.16287E-03    -2.64726E-03         1.00289    -333.585E-03     999.936E-03     177.913E-06     338.033E-06         1.00024    -82.0340E-06     45.5587E-06     139.217E-06
             893              0.              0.              0.              0.     670.273E-06     132.409E-06     64.7284E-06     653.869E-06     100.057E-06     100.057E-06    -49.1006E-06    -49.9558E-06    -49.5161E-06    -49.5402E-06     100.057E-06    -29.0118E-09    -7.88744E-09     40.1212E-09     100.057E-06     100.057E-06    -49.1006E-06    -49.9558E-06    -49.5161E-06    -49.5402E-06     100.057E-06    -29.0118E-09    -7.88744E-09     40.1212E-09         1.00059         1.00066         1.00066     2.94550E-03    -2.77524E-03         1.00343    -333.609E-03         1.00053     165.894E-06     4.72355E-06         1.00066    -97.0295E-06    -26.3794E-06     134.184E-06
             894              0.              0.              0.              0.     677.448E-06     133.756E-06     133.756E-06     650.503E-06     100.048E-06     100.048E-06    -49.4881E-06    -49.5575E-06    -49.5228E-06    -49.5228E-06     100.048E-06    -8.96728E-09    -3.00954E-09    -3.00954E-09     100.048E-06     100.048E-06    -49.4881E-06    -49.5575E-06    -49.5228E-06    -49.5228E-06     100.048E-06    -8.96728E-09    -3.00954E-09    -3.00954E-09         1.00047         1.00094         1.00094     704.830E-06     240.994E-06         1.00070    -333.963E-03         1.00047     472.945E-06     472.945E-06         1.00094    -29.9909E-06    -10.0653E-06    -10.0653E-06
             895              0.              0.              0.              0.     581.226E-06     113.114E-06    -113.114E-06     558.779E-06     100.077E-06     100.077E-06    -49.4707E-06    -49.6075E-06    -49.5390E-06    -49.5390E-06     100.077E-06     76.3982E-09    -108.184E-09     108.184E-09     100.077E-06     100.077E-06    -49.4707E-06    -49.6075E-06    -49.5390E-06    -49.5390E-06     100.077E-06     76.3982E-09    -108.184E-09     108.184E-09         1.00078         1.00019         1.00019    -134.503E-06    -1.04963E-03         1.00123    -333.000E-03         1.00078    -591.910E-06    -591.910E-06         1.00018     255.512E-06    -361.819E-06     361.819E-06
             896              0.              0.              0.              0.     573.450E-06     114.528E-06    -84.6482E-06     555.485E-06     100.072E-06     100.072E-06    -49.0888E-06    -49.9833E-06    -49.5266E-06    -49.5453E-06     100.071E-06     80.0524E-09    -57.2973E-09     173.054E-09     100.072E-06     100.072E-06    -49.0888E-06    -49.9833E-06    -49.5266E-06    -49.5453E-06     100.071E-06     80.0524E-09    -57.2973E-09     173.054E-09         1.00074         1.00036         1.00036     2.63120E-03    -3.35241E-03         1.00371    -333.213E-03         1.00067    -297.431E-06    -422.147E-06         1.00036     267.734E-06    -191.630E-06     578.775E-06
             897              0.              0.              0.              0.     569.165E-06     113.845E-06    -14.5059E-06     557.474E-06     100.146E-06     100.146E-06    -49.0608E-06    -50.0867E-06    -49.5065E-06    -49.6408E-06     100.146E-06     41.8533E-09    -9.51617E-09     118.962E-09     100.146E-06     100.146E-06    -49.0608E-06    -50.0867E-06    -49.5065E-06    -49.6408E-06     100.146E-06     41.8533E-09    -9.51617E-09     118.962E-09         1.00150         1.00049         1.00049     2.45293E-03    -4.40970E-03         1.00490    -332.845E-03         1.00142    -528.216E-06    -1.42705E-03         1.00049     139.978E-06    -31.8267E-06     397.866E-06
             898              0.              0.              0.              0.     569.165E-06     113.845E-06     14.5059E-06     557.474E-06     100.146E-06     100.146E-06    -49.0608E-06    -50.0867E-06    -49.5065E-06    -49.6408E-06     100.146E-06    -41.8533E-09    -9.51617E-09    -118.962E-09     100.146E-06     100.146E-06    -49.0608E-06    -50.0867E-06    -49.5065E-06    -49.6408E-06     100.146E-06    -41.8533E-09    -9.51617E-09    -118.962E-09         1.00150         1.00049         1.00049     2.45293E-03    -4.40970E-03         1.00490    -332.845E-03         1.00142    -528.216E-06    -1.42705E-03         1.00049    -139.978E-06    -31.8267E-06    -397.866E-06
             899              0.              0.              0.              0.     573.450E-06     114.528E-06     84.6482E-06     555.485E-06     100.072E-06     100.072E-06    -49.0888E-06    -49.9833E-06    -49.5266E-06    -49.5453E-06     100.071E-06    -80.0524E-09    -57.2973E-09    -173.054E-09     100.072E-06     100.072E-06    -49.0888E-06    -49.9833E-06    -49.5266E-06    -49.5453E-06     100.071E-06    -80.0524E-09    -57.2973E-09    -173.054E-09         1.00074         1.00036         1.00036     2.63120E-03    -3.35241E-03         1.00371    -333.213E-03         1.00067    -297.431E-06    -422.147E-06         1.00036    -267.734E-06    -191.630E-06    -578.775E-06
             900              0.              0.              0.              0.     581.226E-06     113.114E-06     113.114E-06     558.779E-06     100.077E-06     100.077E-06    -49.4707E-06    -49.6075E-06    -49.5390E-06    -49.5390E-06     100.077E-06    -76.3982E-09    -108.184E-09    -108.184E-09     100.077E-06     100.077E-06    -49.4707E-06    -49.6075E-06    -49.5390E-06    -49.5390E-06     100.077E-06    -76.3982E-09    -108.184E-09    -108.184E-09         1.00078         1.00019         1.00019    -134.503E-06    -1.04963E-03         1.00123    -333.000E-03         1.00078    -591.910E-06    -591.910E-06         1.00018    -255.512E-06    -361.819E-06    -361.819E-06
             901              0.              0.              0.              0.     489.283E-06     135.934E-06    -135.934E-06     449.936E-06     99.5917E-06     99.5917E-06    -49.2075E-06    -49.3908E-06    -49.2980E-06    -49.2980E-06     99.5894E-06     27.7022E-09    -656.063E-09     656.063E-09     99.5917E-06     99.5917E-06    -49.2075E-06    -49.3908E-06    -49.2980E-06    -49.2980E-06     99.5894E-06     27.7022E-09    -656.063E-09     656.063E-09     995.926E-03     995.089E-03     995.089E-03    -223.406E-06    -1.44904E-03     996.538E-03    -331.139E-03     995.924E-03    -828.452E-06    -828.452E-06     995.073E-03     92.6495E-06    -2.19419E-03     2.19419E-03
             902              0.              0.              0.              0.     477.174E-06     134.263E-06    -63.6990E-06     453.443E-06     99.9114E-06     99.9114E-06    -48.8758E-06    -50.0451E-06    -49.3234E-06    -49.5927E-06     99.9066E-06    -8.14345E-09    -718.884E-09     1.05652E-06     99.9114E-06     99.9114E-06    -48.8758E-06    -50.0451E-06    -49.3234E-06    -49.5927E-06     99.9066E-06    -8.14345E-09    -718.884E-09     1.05652E-06     999.184E-03     996.258E-03     996.258E-03     1.02541E-03    -6.79583E-03         1.00305    -330.162E-03     999.060E-03    -1.96842E-03    -3.76981E-03     996.226E-03    -27.2356E-06    -2.40429E-03     3.53350E-03
             903              0.              0.              0.              0.     472.325E-06     134.804E-06    -36.3284E-06     451.220E-06     100.538E-06     100.538E-06    -48.9772E-06    -50.5701E-06    -49.3785E-06    -50.1641E-06     100.533E-06    -21.9945E-09    -820.582E-09     728.485E-09     100.538E-06     100.538E-06    -48.9772E-06    -50.5701E-06    -49.3785E-06    -50.1641E-06     100.533E-06    -21.9945E-09    -820.582E-09     728.485E-09         1.00548         1.00059         1.00059     484.099E-06    -10.1705E-03         1.01076    -330.300E-03         1.00533    -2.19969E-03    -7.45480E-03         1.00056    -73.5604E-06    -2.74442E-03     2.43640E-03
             904              0.              0.              0.              0.     472.325E-06     134.804E-06     36.3284E-06     451.220E-06     100.538E-06     100.538E-06    -48.9772E-06    -50.5701E-06    -49.3785E-06    -50.1641E-06     100.533E-06     21.9945E-09    -820.582E-09    -728.485E-09     100.538E-06     100.538E-06    -48.9772E-06    -50.5701E-06    -49.3785E-06    -50.1641E-06     100.533E-06     21.9945E-09    -820.582E-09    -728.485E-09         1.00548         1.00059         1.00059     484.099E-06    -10.1705E-03         1.01076    -330.300E-03         1.00533    -2.19969E-03    -7.45480E-03         1.00056     73.5604E-06    -2.74442E-03    -2.43640E-03
             905              0.              0.              0.              0.     477.174E-06     134.263E-06     63.6990E-06     453.443E-06     99.9114E-06     99.9114E-06    -48.8758E-06    -50.0451E-06    -49.3234E-06    -49.5927E-06     99.9066E-06     8.14345E-09    -718.884E-09    -1.05652E-06     99.9114E-06     99.9114E-06    -48.8758E-06    -50.0451E-06    -49.3234E-06    -49.5927E-06     99.9066E-06     8.14345E-09    -718.884E-09    -1.05652E-06     999.184E-03     996.258E-03     996.258E-03     1.02541E-03    -6.79583E-03         1.00305    -330.162E-03     999.060E-03    -1.96842E-03    -3.76981E-03     996.226E-03     27.2356E-06    -2.40429E-03    -3.53350E-03
             906              0.              0.              0.              0.     489.283E-06     135.934E-06     135.934E-06     449.936E-06     99.5917E-06     99.5917E-06    -49.2075E-06    -49.3908E-06    -49.2980E-06    -49.2980E-06     99.5894E-06    -27.7022E-09    -656.063E-09    -656.063E-09     99.5917E-06     99.5917E-06    -49.2075E-06    -49.3908E-06    -49.2980E-06    -49.2980E-06     99.5894E-06    -27.7022E-09    -656.063E-09    -656.063E-09     995.926E-03     995.089E-03     995.089E-03    -223.406E-06    -1.44904E-03     996.538E-03    -331.139E-03     995.924E-03    -828.452E-06    -828.452E-06     995.073E-03    -92.6495E-06    -2.19419E-03    -2.19419E-03
             907              0.              0.              0.              0.     393.147E-06     112.686E-06    -112.686E-06     359.401E-06     97.9055E-06     97.9055E-06    -48.3172E-06    -48.6349E-06    -48.4537E-06    -48.4537E-06     97.8609E-06    -362.403E-09    -3.06974E-06     3.06974E-06     97.9055E-06     97.9055E-06    -48.3172E-06    -48.6349E-06    -48.4537E-06    -48.4537E-06     97.8609E-06    -362.403E-09    -3.06974E-06     3.06974E-06     979.143E-03     970.590E-03     970.590E-03    -7.48865E-03    -9.61390E-03     980.204E-03    -317.829E-03     979.136E-03    -8.40185E-03    -8.40185E-03     970.291E-03    -1.21205E-03    -10.2667E-03     10.2667E-03
             908              0.              0.              0.              0.     384.798E-06     114.525E-06    -88.3959E-06     356.567E-06     99.2336E-06     99.2336E-06    -48.4943E-06    -49.7771E-06    -48.5699E-06    -49.6610E-06     99.1931E-06    -402.446E-09    -3.09465E-06     3.08173E-06     99.2336E-06     99.2336E-06    -48.4943E-06    -49.7771E-06    -48.5699E-06    -49.6610E-06     99.1931E-06    -402.446E-09    -3.09465E-06     3.08173E-06     992.481E-03     982.382E-03     982.382E-03    -5.76462E-03    -14.3451E-03     996.727E-03    -320.757E-03     992.347E-03    -6.27017E-03    -13.5687E-03     982.111E-03    -1.34597E-03    -10.3500E-03     10.3068E-03
             909              0.              0.              0.              0.     374.254E-06     114.615E-06    -13.7851E-06     356.005E-06     100.820E-06     100.820E-06    -48.6758E-06    -51.1762E-06    -48.6718E-06    -51.1507E-06     100.791E-06    -221.244E-09    -3.20852E-06     1.54685E-06     100.820E-06     100.820E-06    -48.6758E-06    -51.1762E-06    -48.6718E-06    -51.1507E-06     100.791E-06    -221.244E-09    -3.20852E-06     1.54685E-06         1.00846     994.939E-03     994.939E-03    -5.03398E-03    -21.7587E-03         1.01670    -322.715E-03         1.00809    -5.00735E-03    -21.5884E-03     994.742E-03    -739.947E-06    -10.7308E-03     5.17342E-03
             910              0.              0.              0.              0.     374.254E-06     114.615E-06     13.7851E-06     356.005E-06     100.820E-06     100.820E-06    -48.6758E-06    -51.1762E-06    -48.6718E-06    -51.1507E-06     100.791E-06     221.244E-09    -3.20852E-06    -1.54685E-06     100.820E-06     100.820E-06    -48.6758E-06    -51.1762E-06    -48.6718E-06    -51.1507E-06     100.791E-06     221.244E-09    -3.20852E-06    -1.54685E-06         1.00846     994.939E-03     994.939E-03    -5.03398E-03    -21.7587E-03         1.01670    -322.715E-03         1.00809    -5.00735E-03    -21.5884E-03     994.742E-03     739.947E-06    -10.7308E-03    -5.17342E-03
             911              0.              0.              0.              0.     384.798E-06     114.525E-06     88.3959E-06     356.567E-06     99.2336E-06     99.2336E-06    -48.4943E-06    -49.7771E-06    -48.5699E-06    -49.6610E-06     99.1931E-06     402.446E-09    -3.09465E-06    -3.08173E-06     99.2336E-06     99.2336E-06    -48.4943E-06    -49.7771E-06    -48.5699E-06    -49.6610E-06     99.1931E-06     402.446E-09    -3.09465E-06    -3.08173E-06     992.481E-03     982.382E-03     982.382E-03    -5.76462E-03    -14.3451E-03     996.727E-03    -320.757E-03     992.347E-03    -6.27017E-03    -13.5687E-03     982.111E-03     1.34597E-03    -10.3500E-03    -10.3068E-03
             912              0.              0.              0.              0.     393.147E-06     112.686E-06     112.686E-06     359.401E-06     97.9055E-06     97.9055E-06    -48.3172E-06    -48.6349E-06    -48.4537E-06    -48.4537E-06     97.8609E-06     362.403E-09    -3.06974E-06    -3.06974E-06     97.9055E-06     97.9055E-06    -48.3172E-06    -48.6349E-06    -48.4537E-06    -48.4537E-06     97.8609E-06     362.403E-09    -3.06974E-06    -3.06974E-06     979.143E-03     970.590E-03     970.590E-03    -7.48865E-03    -9.61390E-03     980.204E-03    -317.829E-03     979.136E-03    -8.40185E-03    -8.40185E-03     970.291E-03     1.21205E-03    -10.2667E-03    -10.2667E-03
             913              0.              0.              0.              0.     327.778E-06     137.965E-06    -137.965E-06     263.381E-06     92.6521E-06     92.6521E-06    -45.2785E-06    -46.4372E-06    -45.8356E-06    -45.8356E-06     92.6077E-06    -1.20319E-06    -3.00402E-06     3.00402E-06     92.6521E-06     92.6521E-06    -45.2785E-06    -46.4372E-06    -45.8356E-06    -45.8356E-06     92.6077E-06    -1.20319E-06    -3.00402E-06     3.00402E-06     926.522E-03     929.793E-03     929.793E-03     7.18103E-03    -569.988E-06     930.363E-03    -312.135E-03     926.419E-03     3.45407E-03     3.45407E-03     929.496E-03    -4.02406E-03    -10.0469E-03     10.0469E-03
             914              0.              0.              0.              0.     299.032E-06     137.724E-06    -66.0076E-06     257.090E-06     95.3840E-06     95.3840E-06    -45.7833E-06    -48.6604E-06    -46.2317E-06    -48.0630E-06     95.2351E-06    -1.90864E-06    -3.62658E-06     6.36733E-06     95.3840E-06     95.3840E-06    -45.7833E-06    -48.6604E-06    -46.2317E-06    -48.0630E-06     95.2351E-06    -1.90864E-06    -3.62658E-06     6.36733E-06     954.156E-03     949.393E-03     949.393E-03     5.12965E-03    -14.1151E-03     963.508E-03    -313.469E-03     953.344E-03     2.12999E-03    -10.1194E-03     948.397E-03    -6.38341E-03    -12.1290E-03     21.2954E-03
             915              0.              0.              0.              0.     290.716E-06     138.995E-06    -39.1435E-06     252.317E-06     100.632E-06     100.632E-06    -46.5590E-06    -53.1178E-06    -46.6988E-06    -52.8213E-06     100.475E-06    -1.30704E-06    -5.08595E-06     4.86532E-06     100.632E-06     100.632E-06    -46.5590E-06    -53.1178E-06    -46.6988E-06    -52.8213E-06     100.475E-06    -1.30704E-06    -5.08595E-06     4.86532E-06         1.00749     989.374E-03     989.374E-03     4.81829E-03    -39.0532E-03         1.02843    -318.380E-03         1.00448     3.88350E-03    -37.0695E-03     988.325E-03    -4.37138E-03    -17.0099E-03     16.2720E-03
             916              0.              0.              0.              0.     290.716E-06     138.995E-06     39.1435E-06     252.317E-06     100.632E-06     100.632E-06    -46.5590E-06    -53.1178E-06    -46.6988E-06    -52.8213E-06     100.475E-06     1.30704E-06    -5.08595E-06    -4.86532E-06     100.632E-06     100.632E-06    -46.5590E-06    -53.1178E-06    -46.6988E-06    -52.8213E-06     100.475E-06     1.30704E-06    -5.08595E-06    -4.86532E-06         1.00749     989.374E-03     989.374E-03     4.81829E-03    -39.0532E-03         1.02843    -318.380E-03         1.00448     3.88350E-03    -37.0695E-03     988.325E-03     4.37138E-03    -17.0099E-03    -16.2720E-03
             917              0.              0.              0.              0.     299.032E-06     137.724E-06     66.0076E-06     257.090E-06     95.3840E-06     95.3840E-06    -45.7833E-06    -48.6604E-06    -46.2317E-06    -48.0630E-06     95.2351E-06     1.90864E-06    -3.62658E-06    -6.36733E-06     95.3840E-06     95.3840E-06    -45.7833E-06    -48.6604E-06    -46.2317E-06    -48.0630E-06     95.2351E-06     1.90864E-06    -3.62658E-06    -6.36733E-06     954.156E-03     949.393E-03     949.393E-03     5.12965E-03    -14.1151E-03     963.508E-03    -313.469E-03     953.344E-03     2.12999E-03    -10.1194E-03     948.397E-03     6.38341E-03    -12.1290E-03    -21.2954E-03
             918              0.              0.              0.              0.     327.778E-06     137.965E-06     137.965E-06     263.381E-06     92.6521E-06     92.6521E-06    -45.2785E-06    -46.4372E-06    -45.8356E-06    -45.8356E-06     92.6077E-06     1.20319E-06    -3.00402E-06    -3.00402E-06     92.6521E-06     92.6521E-06    -45.2785E-06    -46.4372E-06    -45.8356E-06    -45.8356E-06     92.6077E-06     1.20319E-06    -3.00402E-06    -3.00402E-06     926.522E-03     929.793E-03     929.793E-03     7.18103E-03    -569.988E-06     930.363E-03    -312.135E-03     926.419E-03     3.45407E-03     3.45407E-03     929.496E-03     4.02406E-03    -10.0469E-03    -10.0469E-03
             919              0.              0.              0.              0.     228.453E-06     104.089E-06    -104.089E-06     174.705E-06     89.8855E-06     89.8855E-06    -42.7400E-06    -46.3596E-06    -44.3605E-06    -44.3605E-06     89.5067E-06    -3.99835E-06    -7.65114E-06     7.65114E-06     89.8855E-06     89.8855E-06    -42.7400E-06    -46.3596E-06    -44.3605E-06    -44.3605E-06     89.5067E-06    -3.99835E-06    -7.65114E-06     7.65114E-06     899.529E-03     861.417E-03     861.417E-03    -25.7096E-03    -49.9209E-03     911.338E-03    -261.929E-03     898.639E-03    -36.5485E-03    -36.5485E-03     858.884E-03    -13.3724E-03    -25.5891E-03     25.5891E-03
             920              0.              0.              0.              0.     221.841E-06     107.738E-06    -91.5519E-06     170.951E-06     94.3526E-06     94.3526E-06    -43.9678E-06    -49.5387E-06    -45.5528E-06    -47.4620E-06     93.8610E-06    -4.78328E-06    -8.78728E-06     3.97856E-06     94.3526E-06     94.3526E-06    -43.9678E-06    -49.5387E-06    -45.5528E-06    -47.4620E-06     93.8610E-06    -4.78328E-06    -8.78728E-06     3.97856E-06     944.480E-03     911.297E-03     911.297E-03    -13.9231E-03    -51.1869E-03     962.484E-03    -282.062E-03     942.593E-03    -24.5256E-03    -37.2958E-03     908.008E-03    -15.9976E-03    -29.3889E-03     13.3062E-03
             921              0.              0.              0.              0.     190.785E-06     116.841E-06    -19.2448E-06     149.589E-06     97.2877E-06     97.2877E-06    -43.0449E-06    -53.3209E-06    -46.9588E-06    -48.9710E-06     96.8517E-06    -2.78410E-06    -10.6363E-06     152.985E-09     97.2877E-06     97.2877E-06    -43.0449E-06    -53.3209E-06    -46.9588E-06    -48.9710E-06     96.8517E-06    -2.78410E-06    -10.6363E-06     152.985E-09     975.024E-03     955.974E-03     955.974E-03     17.2940E-03    -51.4417E-03         1.00742    -307.275E-03     969.068E-03    -8.88577E-03    -22.3454E-03     953.057E-03    -9.31138E-03    -35.5730E-03     511.657E-06
             922              0.              0.              0.              0.     190.785E-06     116.841E-06     19.2448E-06     149.589E-06     97.2877E-06     97.2877E-06    -43.0449E-06    -53.3209E-06    -46.9588E-06    -48.9710E-06     96.8517E-06     2.78410E-06    -10.6363E-06    -152.985E-09     97.2877E-06     97.2877E-06    -43.0449E-06    -53.3209E-06    -46.9588E-06    -48.9710E-06     96.8517E-06     2.78410E-06    -10.6363E-06    -152.985E-09     975.024E-03     955.974E-03     955.974E-03     17.2940E-03    -51.4417E-03         1.00742    -307.275E-03     969.068E-03    -8.88577E-03    -22.3454E-03     953.057E-03     9.31138E-03    -35.5730E-03    -511.657E-06
             923              0.              0.              0.              0.     221.841E-06     107.738E-06     91.5519E-06     170.951E-06     94.3526E-06     94.3526E-06    -43.9678E-06    -49.5387E-06    -45.5528E-06    -47.4620E-06     93.8610E-06     4.78328E-06    -8.78728E-06    -3.97856E-06     94.3526E-06     94.3526E-06    -43.9678E-06    -49.5387E-06    -45.5528E-06    -47.4620E-06     93.8610E-06     4.78328E-06    -8.78728E-06    -3.97856E-06     944.480E-03     911.297E-03     911.297E-03    -13.9231E-03    -51.1869E-03     962.484E-03    -282.062E-03     942.593E-03    -24.5256E-03    -37.2958E-03     908.008E-03     15.9976E-03    -29.3889E-03    -13.3062E-03
             924              0.              0.              0.              0.     228.453E-06     104.089E-06     104.089E-06     174.705E-06     89.8855E-06     89.8855E-06    -42.7400E-06    -46.3596E-06    -44.3605E-06    -44.3605E-06     89.5067E-06     3.99835E-06    -7.65114E-06    -7.65114E-06     89.8855E-06     89.8855E-06    -42.7400E-06    -46.3596E-06    -44.3605E-06    -44.3605E-06     89.5067E-06     3.99835E-06    -7.65114E-06    -7.65114E-06     899.529E-03     861.417E-03     861.417E-03    -25.7096E-03    -49.9209E-03     911.338E-03    -261.929E-03     898.639E-03    -36.5485E-03    -36.5485E-03     858.884E-03     13.3724E-03    -25.5891E-03    -25.5891E-03
             925              0.              0.              0.              0.     213.424E-06     120.396E-06    -120.396E-06     128.684E-06     93.0404E-06     93.0404E-06    -42.0194E-06    -49.8380E-06    -42.1506E-06    -42.1506E-06     85.4841E-06    -5.14162E-06     23.4004E-06    -23.4004E-06     93.0404E-06     93.0404E-06    -42.0194E-06    -49.8380E-06    -42.1506E-06    -42.1506E-06     85.4841E-06    -5.14162E-06     23.4004E-06    -23.4004E-06     930.766E-03         1.01403         1.01403     110.615E-03     58.3163E-03     955.709E-03    -394.319E-03     927.136E-03     109.737E-03     109.737E-03     963.481E-03    -17.1960E-03     78.2623E-03    -78.2623E-03
             926              0.              0.              0.              0.     159.032E-06     129.166E-06    -47.8164E-06     79.5041E-06     89.7622E-06     89.7622E-06    -37.1677E-06    -51.3127E-06    -43.5387E-06    -37.5361E-06     82.3565E-06    -4.96199E-06     24.2334E-06    -24.4754E-06     89.7622E-06     89.7622E-06    -37.1677E-06    -51.3127E-06    -43.5387E-06    -37.5361E-06     82.3565E-06    -4.96199E-06     24.2334E-06    -24.4754E-06     903.652E-03         1.02482         1.02482     175.795E-03     81.1799E-03     943.645E-03    -427.267E-03     880.333E-03     133.180E-03     173.331E-03     975.288E-03    -16.5953E-03     81.0481E-03    -81.8574E-03
             927              0.              0.              0.              0.     162.277E-06     135.832E-06    -19.3686E-06     86.6511E-06     82.9940E-06     82.9940E-06    -29.9548E-06    -51.6822E-06    -44.9517E-06    -30.2576E-06     76.5663E-06    -2.39118E-06     25.8901E-06    -12.7751E-06     82.9940E-06     82.9940E-06    -29.9548E-06    -51.6822E-06    -44.9517E-06    -30.2576E-06     76.5663E-06    -2.39118E-06     25.8901E-06    -12.7751E-06     841.997E-03         1.00446         1.00446     248.952E-03     103.617E-03     900.845E-03    -452.344E-03     797.875E-03     148.638E-03     246.926E-03     961.467E-03    -7.99727E-03     86.5891E-03    -42.7262E-03
             928              0.              0.              0.              0.     162.277E-06     135.832E-06     19.3686E-06     86.6511E-06     82.9940E-06     82.9940E-06    -29.9548E-06    -51.6822E-06    -44.9517E-06    -30.2576E-06     76.5663E-06     2.39118E-06     25.8901E-06     12.7751E-06     82.9940E-06     82.9940E-06    -29.9548E-06    -51.6822E-06    -44.9517E-06    -30.2576E-06     76.5663E-06     2.39118E-06     25.8901E-06     12.7751E-06     841.997E-03         1.00446         1.00446     248.952E-03     103.617E-03     900.845E-03    -452.344E-03     797.875E-03     148.638E-03     246.926E-03     961.467E-03     7.99727E-03     86.5891E-03     42.7262E-03
             929              0.              0.              0.              0.     159.032E-06     129.166E-06     47.8164E-06     79.5041E-06     89.7622E-06     89.7622E-06    -37.1677E-06    -51.3127E-06    -43.5387E-06    -37.5361E-06     82.3565E-06     4.96199E-06     24.2334E-06     24.4754E-06     89.7622E-06     89.7622E-06    -37.1677E-06    -51.3127E-06    -43.5387E-06    -37.5361E-06     82.3565E-06     4.96199E-06     24.2334E-06     24.4754E-06     903.652E-03         1.02482         1.02482     175.795E-03     81.1799E-03     943.645E-03    -427.267E-03     880.333E-03     133.180E-03     173.331E-03     975.288E-03     16.5953E-03     81.0481E-03     81.8574E-03
             930              0.              0.              0.              0.     213.424E-06     120.396E-06     120.396E-06     128.684E-06     93.0404E-06     93.0404E-06    -42.0194E-06    -49.8380E-06    -42.1506E-06    -42.1506E-06     85.4841E-06     5.14162E-06     23.4004E-06     23.4004E-06     93.0404E-06     93.0404E-06    -42.0194E-06    -49.8380E-06    -42.1506E-06    -42.1506E-06     85.4841E-06     5.14162E-06     23.4004E-06     23.4004E-06     930.766E-03         1.01403         1.01403     110.615E-03     58.3163E-03     955.709E-03    -394.319E-03     927.136E-03     109.737E-03     109.737E-03     963.481E-03     17.1960E-03     78.2623E-03     78.2623E-03
             931     428.955E-03    -137.752E-03     137.752E-03    -382.167E-03              0.     137.752E-39    -137.752E-39     382.167E-39     93.3651E-06     93.3651E-06    -40.6749E-06    -50.9082E-06    -38.6119E-06    -38.6119E-06     79.0059E-06    -4.12589E-06     61.0813E-06    -61.0813E-06     93.3651E-06     93.3651E-06    -40.6749E-06    -50.9082E-06    -38.6119E-06    -38.6119E-06     79.0059E-06    -4.12589E-06     61.0813E-06    -61.0813E-06     932.699E-03         1.21456         1.21456     317.973E-03     249.523E-03     965.039E-03    -594.019E-03     927.023E-03     331.772E-03     331.772E-03         1.11851    -13.7990E-03     204.285E-03    -204.285E-03
             932     687.399E-03    -275.366E-03     134.134E-03    -615.385E-03              0.     275.366E-39    -134.134E-39     615.385E-39     82.1461E-06     82.1461E-06    -29.2797E-06    -51.0416E-06    -39.6326E-06    -26.6346E-06     68.0921E-06    -3.52335E-06     63.5138E-06    -48.6208E-06     82.1461E-06     82.1461E-06    -29.2797E-06    -51.0416E-06    -39.6326E-06    -26.6346E-06     68.0921E-06    -3.52335E-06     63.5138E-06    -48.6208E-06     831.991E-03         1.15367         1.15367     408.351E-03     262.786E-03     890.888E-03    -608.270E-03     787.590E-03     339.100E-03     426.044E-03         1.05967    -11.7838E-03     212.421E-03    -162.612E-03
             933     649.911E-03    -281.279E-03     23.0482E-03    -585.435E-03              0.     281.279E-39    -23.0482E-39     585.435E-39     71.0558E-06     71.0558E-06    -18.0636E-06    -51.1468E-06    -40.5131E-06    -16.4500E-06     58.8085E-06    -1.46041E-06     67.5963E-06    -18.0802E-06     71.0558E-06     71.0558E-06    -18.0636E-06    -51.1468E-06    -40.5131E-06    -16.4500E-06     58.8085E-06    -1.46041E-06     67.5963E-06    -18.0802E-06     732.286E-03         1.08631         1.08631     490.197E-03     268.905E-03     817.409E-03    -615.139E-03     650.419E-03     340.033E-03     500.991E-03         1.00439    -4.88431E-03     226.075E-03    -60.4688E-03
             934     649.911E-03    -281.279E-03    -23.0482E-03    -585.435E-03              0.     281.279E-39     23.0482E-39     585.435E-39     71.0558E-06     71.0558E-06    -18.0636E-06    -51.1468E-06    -40.5131E-06    -16.4500E-06     58.8085E-06     1.46041E-06     67.5963E-06     18.0802E-06     71.0558E-06     71.0558E-06    -18.0636E-06    -51.1468E-06    -40.5131E-06    -16.4500E-06     58.8085E-06     1.46041E-06     67.5963E-06     18.0802E-06     732.286E-03         1.08631         1.08631     490.197E-03     268.905E-03     817.409E-03    -615.139E-03     650.419E-03     340.033E-03     500.991E-03         1.00439     4.88431E-03     226.075E-03     60.4688E-03
             935     687.399E-03    -275.366E-03    -134.134E-03    -615.385E-03              0.     275.366E-39     134.134E-39     615.385E-39     82.1461E-06     82.1461E-06    -29.2797E-06    -51.0416E-06    -39.6326E-06    -26.6346E-06     68.0921E-06     3.52335E-06     63.5138E-06     48.6208E-06     82.1461E-06     82.1461E-06    -29.2797E-06    -51.0416E-06    -39.6326E-06    -26.6346E-06     68.0921E-06     3.52335E-06     63.5138E-06     48.6208E-06     831.991E-03         1.15367         1.15367     408.351E-03     262.786E-03     890.888E-03    -608.270E-03     787.590E-03     339.100E-03     426.044E-03         1.05967     11.7838E-03     212.421E-03     162.612E-03
             936     428.955E-03    -137.752E-03    -137.752E-03    -382.167E-03              0.     137.752E-39     137.752E-39     382.167E-39     93.3651E-06     93.3651E-06    -40.6749E-06    -50.9082E-06    -38.6119E-06    -38.6119E-06     79.0059E-06     4.12589E-06     61.0813E-06     61.0813E-06     93.3651E-06     93.3651E-06    -40.6749E-06    -50.9082E-06    -38.6119E-06    -38.6119E-06     79.0059E-06     4.12589E-06     61.0813E-06     61.0813E-06     932.699E-03         1.21456         1.21456     317.973E-03     249.523E-03     965.039E-03    -594.019E-03     927.023E-03     331.772E-03     331.772E-03         1.11851     13.7990E-03     204.285E-03     204.285E-03


  Minimum                     0.    -291.926E-03    -291.926E-03    -922.695E-03              0.    -138.995E-06    -138.995E-06     382.167E-39     44.7861E-06     44.7861E-06    -52.9463E-06    -55.6182E-06    -54.1151E-06    -54.1151E-06     38.3141E-06    -5.62378E-06    -67.5963E-06    -67.5963E-06     44.7861E-06     44.7861E-06    -52.9463E-06    -55.6182E-06    -54.1151E-06    -54.1151E-06     38.3141E-06    -5.62378E-06    -67.5963E-06    -67.5963E-06     443.374E-03     861.417E-03     861.417E-03    -25.7096E-03    -51.4417E-03     457.815E-03    -702.960E-03     440.154E-03    -37.2958E-03    -37.2958E-03     858.884E-03    -18.8086E-03    -226.075E-03    -226.075E-03
         At Node             930             778             623             779             936             136             601             936             622             622             604             610             604             604             622             764             154             619             622             622             604             610             604             604             622             764             154             619             622             924             924             924             922             622             622             622             768             923             924             764             154             619

  Maximum                1.00167     291.926E-03     291.926E-03              0.     2.46154E-03     138.995E-06     138.995E-06     2.45493E-03     109.577E-06     109.577E-06    -18.0636E-06    -23.6571E-06    -16.4500E-06    -16.4500E-06     109.272E-06     5.62378E-06     67.5963E-06     67.5963E-06     109.577E-06     109.577E-06    -18.0636E-06    -23.6571E-06    -16.4500E-06    -16.4500E-06     109.272E-06     5.62378E-06     67.5963E-06     67.5963E-06         1.09611         1.21456         1.21456     571.033E-03     540.016E-03         1.10479    -261.929E-03         1.09563     577.170E-03     577.170E-03         1.12589     18.8086E-03     226.075E-03     226.075E-03
         At Node             779             310             620             930             786             916             606             786             604             604             934             622             624             934             604             767             934             624             604             604             934             622             624             934             604             767             934             624             604             936             936             622             622             604             924             604             622             622             610             767             934             624

           Total         27.0091              0.              0.        -25.0000         1.13959     10.9139E-12     7.27596E-12         1.12966     91.9077E-03     91.9077E-03    -44.4454E-03    -46.4824E-03    -45.1192E-03    -45.1192E-03     91.2183E-03    -113.264E-15     920.285E-15    -3.63320E-12     91.9077E-03     91.9077E-03    -44.4454E-03    -46.4824E-03    -45.1192E-03    -45.1192E-03     91.2183E-03    -113.264E-15     920.285E-15    -3.63320E-12         919.719         939.223         939.223         27.1620         13.5364         925.687        -326.641         917.037         22.6550         22.6550         934.612    -459.252E-12     68.3951E-12    -22.3263E-09


