********************************************************************************
Field Output Report, written Wed Jan 10 06:39:34 2024

Source 1
---------

   ODB: C:/abaqusTemp/Job-1.odb
   Step: Step-1
   Frame: Increment      1: Step Time =    1.000

Loc 1 : Nodal values from source 1

Output sorted by column "Node Label".

Field Output reported at nodes for part: PART-1-1
   Computation algorithm: EXTRAPOLATE_COMPUTE_AVERAGE
   Averaged at nodes
   Averaging regions: ODB_REGIONS

      Node Label    RF.Magnitude          RF.RF1          RF.RF2          RF.RF3    TF.Magnitude          TF.TF1          TF.TF2          TF.TF3     U.Magnitude            U.U1            U.U2            U.U3     E.Max. Prin  E.Max. Prin(a)     E.Mid. Prin     E.Min. Prin           E.E11           E.E22           E.E33           E.E12           E.E13           E.E23    EE.Max. Prin  EE.Max. Prin(a)    EE.Mid. Prin    EE.Min. Prin         EE.EE11         EE.EE22         EE.EE33         EE.EE12         EE.EE13         EE.EE23         S.Mises     S.Max. Prin  S.Max. Prin(a)     S.Mid. Prin     S.Min. Prin        S.Tresca      S.Pressure     S.Third Inv           S.S11           S.S22           S.S33           S.S12           S.S13           S.S23
                          @Loc 1          @Loc 1          @Loc 1          @Loc 1          @Loc 1          @Loc 1          @Loc 1          @Loc 1          @Loc 1          @Loc 1          @Loc 1          @Loc 1          @Loc 1          @Loc 1          @Loc 1          @Loc 1          @Loc 1          @Loc 1          @Loc 1          @Loc 1          @Loc 1          @Loc 1          @Loc 1          @Loc 1          @Loc 1          @Loc 1          @Loc 1          @Loc 1          @Loc 1          @Loc 1          @Loc 1          @Loc 1          @Loc 1          @Loc 1          @Loc 1          @Loc 1          @Loc 1          @Loc 1          @Loc 1          @Loc 1          @Loc 1          @Loc 1          @Loc 1          @Loc 1          @Loc 1          @Loc 1
----------------------------------------------------------------------------------------------------------------------------------------------------------------------------------------------------------------------------------------------------------------------------------------------------------------------------------------------------------------------------------------------------------------------------------------------------------------------------------------------------------------------------------------------------------------------------------------------------------------------------------------------------------------------------------------------------------------------------------------------------------------------------------
               1              0.              0.              0.              0.              0.              0.              0.              0.     2.45459E-03    -123.750E-06    -123.750E-06     2.44834E-03     100.000E-06     100.000E-06    -49.4999E-06    -49.5002E-06    -49.5000E-06    -49.5000E-06     100.000E-06    -259.462E-12    -262.117E-12    -262.117E-12     100.000E-06     100.000E-06    -49.4999E-06    -49.5002E-06    -49.5000E-06    -49.5000E-06     100.000E-06    -259.462E-12    -262.117E-12    -262.117E-12         1.00000         1.00000         1.00000     906.709E-09    -828.797E-09         1.00000    -333.334E-03         1.00000     38.9566E-09     38.9567E-09         1.00000    -867.765E-09    -876.644E-09    -876.644E-09
               2              0.              0.              0.              0.              0.              0.              0.              0.     2.45259E-03    -123.750E-06    -74.2499E-06     2.44834E-03     100.000E-06     100.000E-06    -49.4999E-06    -49.5001E-06    -49.5000E-06    -49.5000E-06     100.000E-06     56.1986E-12     57.9965E-12     171.431E-12     100.000E-06     100.000E-06    -49.4999E-06    -49.5001E-06    -49.5000E-06    -49.5000E-06     100.000E-06     56.1986E-12     57.9965E-12     171.431E-12         1.00000              1.              1.     657.229E-09    -764.261E-09         1.00000    -333.333E-03         1.00000     116.971E-09    -224.004E-09              1.     187.955E-09     193.968E-09     573.349E-09
               3              0.              0.              0.              0.              0.              0.              0.              0.     2.45159E-03    -123.750E-06    -24.7501E-06     2.44834E-03    100.0000E-06    100.0000E-06    -49.4999E-06    -49.5001E-06    -49.5000E-06    -49.5000E-06    100.0000E-06    -84.5037E-12    -37.8967E-12    -180.496E-12    100.0000E-06    100.0000E-06    -49.4999E-06    -49.5001E-06    -49.5000E-06    -49.5000E-06    100.0000E-06    -84.5037E-12    -37.8967E-12    -180.496E-12              1.              1.              1.     693.552E-09    -610.194E-09         1.00000    -333.333E-03              1.    -37.4177E-09     120.777E-09              1.    -282.621E-09    -126.745E-09    -603.666E-09
               4              0.              0.              0.              0.              0.              0.              0.              0.     2.45159E-03    -123.750E-06     24.7501E-06     2.44834E-03    100.0000E-06    100.0000E-06    -49.4999E-06    -49.5001E-06    -49.5000E-06    -49.5000E-06    100.0000E-06     84.5037E-12    -37.8967E-12     180.496E-12    100.0000E-06    100.0000E-06    -49.4999E-06    -49.5001E-06    -49.5000E-06    -49.5000E-06    100.0000E-06     84.5037E-12    -37.8967E-12     180.496E-12              1.              1.              1.     693.551E-09    -610.193E-09         1.00000    -333.333E-03              1.    -37.4176E-09     120.776E-09              1.     282.621E-09    -126.745E-09     603.666E-09
               5              0.              0.              0.              0.              0.              0.              0.              0.     2.45259E-03    -123.750E-06     74.2499E-06     2.44834E-03     100.000E-06     100.000E-06    -49.4999E-06    -49.5001E-06    -49.5000E-06    -49.5000E-06     100.000E-06    -56.1986E-12     57.9965E-12    -171.431E-12     100.000E-06     100.000E-06    -49.4999E-06    -49.5001E-06    -49.5000E-06    -49.5000E-06     100.000E-06    -56.1986E-12     57.9965E-12    -171.431E-12         1.00000              1.              1.     657.221E-09    -764.253E-09         1.00000    -333.333E-03         1.00000     116.972E-09    -224.003E-09              1.    -187.955E-09     193.968E-09    -573.349E-09
               6              0.              0.              0.              0.              0.              0.              0.              0.     2.45459E-03    -123.750E-06     123.750E-06     2.44834E-03     100.000E-06     100.000E-06    -49.4999E-06    -49.5002E-06    -49.5000E-06    -49.5000E-06     100.000E-06     259.462E-12    -262.117E-12     262.117E-12     100.000E-06     100.000E-06    -49.4999E-06    -49.5002E-06    -49.5000E-06    -49.5000E-06     100.000E-06     259.462E-12    -262.117E-12     262.117E-12         1.00000         1.00000         1.00000     906.708E-09    -828.798E-09         1.00000    -333.334E-03         1.00000     38.9563E-09     38.9561E-09         1.00000     867.765E-09    -876.644E-09     876.644E-09
               7              0.              0.              0.              0.              0.              0.              0.              0.     2.35485E-03    -123.750E-06    -123.750E-06     2.34834E-03     99.9999E-06     99.9999E-06    -49.4998E-06    -49.5001E-06    -49.5000E-06    -49.5000E-06     99.9999E-06     297.234E-12     141.554E-12     141.554E-12     99.9999E-06     99.9999E-06    -49.4998E-06    -49.5001E-06    -49.5000E-06    -49.5000E-06     99.9999E-06     297.234E-12     141.554E-12     141.554E-12     999.999E-03     999.999E-03     999.999E-03     1.03443E-06    -953.750E-09         1.00000    -333.333E-03     999.999E-03     40.3389E-09     40.3390E-09     999.999E-03     994.093E-09     473.424E-09     473.425E-09
               8              0.              0.              0.              0.              0.              0.              0.              0.     2.35277E-03    -123.750E-06    -74.2501E-06     2.34834E-03    100.0000E-06    100.0000E-06    -49.4999E-06    -49.5001E-06    -49.5000E-06    -49.5000E-06    100.0000E-06    -62.7388E-12    -28.3245E-12     15.7553E-12    100.0000E-06    100.0000E-06    -49.4999E-06    -49.5001E-06    -49.5000E-06    -49.5000E-06    100.0000E-06    -62.7388E-12    -28.3245E-12     15.7553E-12              1.              1.              1.     842.799E-09    -777.840E-09         1.00000    -333.333E-03              1.    -157.619E-09     222.579E-09              1.    -209.829E-09    -94.7309E-09     52.6933E-09
               9              0.              0.              0.              0.              0.              0.              0.              0.     2.35173E-03    -123.750E-06    -24.7499E-06     2.34834E-03    100.0000E-06    100.0000E-06    -49.4999E-06    -49.5001E-06    -49.5000E-06    -49.5000E-06    100.0000E-06     95.2928E-12     22.0411E-12     4.44770E-12    100.0000E-06    100.0000E-06    -49.4999E-06    -49.5001E-06    -49.5000E-06    -49.5000E-06    100.0000E-06     95.2928E-12     22.0411E-12     4.44770E-12    1000.000E-03    1000.000E-03    1000.000E-03     717.270E-09    -775.717E-09         1.00000    -333.333E-03    1000.000E-03     62.2346E-09    -120.681E-09    1000.000E-03     318.705E-09     73.7161E-09     14.8752E-09
              10              0.              0.              0.              0.              0.              0.              0.              0.     2.35173E-03    -123.750E-06     24.7499E-06     2.34834E-03    100.0000E-06    100.0000E-06    -49.4999E-06    -49.5001E-06    -49.5000E-06    -49.5000E-06    100.0000E-06    -95.2928E-12     22.0411E-12    -4.44776E-12    100.0000E-06    100.0000E-06    -49.4999E-06    -49.5001E-06    -49.5000E-06    -49.5000E-06    100.0000E-06    -95.2928E-12     22.0411E-12    -4.44776E-12    1000.000E-03    1000.000E-03    1000.000E-03     717.267E-09    -775.713E-09         1.00000    -333.333E-03    1000.000E-03     62.2346E-09    -120.681E-09    1000.000E-03    -318.705E-09     73.7161E-09    -14.8755E-09
              11              0.              0.              0.              0.              0.              0.              0.              0.     2.35277E-03    -123.750E-06     74.2501E-06     2.34834E-03    100.0000E-06    100.0000E-06    -49.4999E-06    -49.5001E-06    -49.5000E-06    -49.5000E-06    100.0000E-06     62.7388E-12    -28.3245E-12    -15.7553E-12    100.0000E-06    100.0000E-06    -49.4999E-06    -49.5001E-06    -49.5000E-06    -49.5000E-06    100.0000E-06     62.7388E-12    -28.3245E-12    -15.7553E-12              1.              1.              1.     842.803E-09    -777.845E-09         1.00000    -333.333E-03              1.    -157.619E-09     222.579E-09              1.     209.829E-09    -94.7309E-09    -52.6934E-09
              12              0.              0.              0.              0.              0.              0.              0.              0.     2.35485E-03    -123.750E-06     123.750E-06     2.34834E-03     99.9999E-06     99.9999E-06    -49.4998E-06    -49.5001E-06    -49.5000E-06    -49.5000E-06     99.9999E-06    -297.234E-12     141.554E-12    -141.554E-12     99.9999E-06     99.9999E-06    -49.4998E-06    -49.5001E-06    -49.5000E-06    -49.5000E-06     99.9999E-06    -297.234E-12     141.554E-12    -141.554E-12     999.999E-03     999.999E-03     999.999E-03     1.03443E-06    -953.754E-09         1.00000    -333.333E-03     999.999E-03     40.3395E-09     40.3393E-09     999.999E-03    -994.093E-09     473.424E-09    -473.424E-09
              13              0.              0.              0.              0.              0.              0.              0.              0.     2.25514E-03    -123.750E-06    -123.750E-06     2.24834E-03     100.000E-06     100.000E-06    -49.4999E-06    -49.5003E-06    -49.5001E-06    -49.5001E-06     100.000E-06    -403.933E-12    -310.917E-12    -310.917E-12     100.000E-06     100.000E-06    -49.4999E-06    -49.5003E-06    -49.5001E-06    -49.5001E-06     100.000E-06    -403.933E-12    -310.917E-12    -310.917E-12         1.00000         1.00000         1.00000     1.32229E-06    -1.37960E-06         1.00000    -333.334E-03         1.00000    -28.6523E-09    -28.6531E-09         1.00000    -1.35095E-06    -1.03986E-06    -1.03986E-06
              14              0.              0.              0.              0.              0.              0.              0.              0.     2.25297E-03    -123.750E-06    -74.2499E-06     2.24834E-03     100.000E-06     100.000E-06    -49.4998E-06    -49.5002E-06    -49.5000E-06    -49.5000E-06     100.000E-06     79.3632E-12     57.5161E-12    -34.2928E-12     100.000E-06     100.000E-06    -49.4998E-06    -49.5002E-06    -49.5000E-06    -49.5000E-06     100.000E-06     79.3632E-12     57.5161E-12    -34.2928E-12         1.00000              1.              1.     1.02245E-06    -1.14489E-06         1.00000    -333.333E-03         1.00000     191.260E-09    -313.696E-09              1.     265.429E-09     192.361E-09    -114.692E-09
              15              0.              0.              0.              0.              0.              0.              0.              0.     2.25188E-03    -123.750E-06    -24.7501E-06     2.24834E-03     100.000E-06     100.000E-06    -49.4999E-06    -49.5001E-06    -49.5000E-06    -49.5000E-06     100.000E-06    -122.823E-12    -48.4715E-12    -5.63893E-12     100.000E-06     100.000E-06    -49.4999E-06    -49.5001E-06    -49.5000E-06    -49.5000E-06     100.000E-06    -122.823E-12    -48.4715E-12    -5.63893E-12              1.              1.              1.     1.03234E-06    -930.170E-09         1.00000    -333.333E-03              1.    -82.9329E-09     185.105E-09              1.    -410.780E-09    -162.112E-09    -18.8593E-09
              16              0.              0.              0.              0.              0.              0.              0.              0.     2.25188E-03    -123.750E-06     24.7501E-06     2.24834E-03     100.000E-06     100.000E-06    -49.4999E-06    -49.5001E-06    -49.5000E-06    -49.5000E-06     100.000E-06     122.823E-12    -48.4715E-12     5.63882E-12     100.000E-06     100.000E-06    -49.4999E-06    -49.5001E-06    -49.5000E-06    -49.5000E-06     100.000E-06     122.823E-12    -48.4715E-12     5.63882E-12              1.              1.              1.     1.03234E-06    -930.170E-09         1.00000    -333.333E-03              1.    -82.9328E-09     185.105E-09              1.     410.780E-09    -162.112E-09     18.8590E-09
              17              0.              0.              0.              0.              0.              0.              0.              0.     2.25297E-03    -123.750E-06     74.2499E-06     2.24834E-03     100.000E-06     100.000E-06    -49.4998E-06    -49.5002E-06    -49.5000E-06    -49.5000E-06     100.000E-06    -79.3632E-12     57.5161E-12     34.2928E-12     100.000E-06     100.000E-06    -49.4998E-06    -49.5002E-06    -49.5000E-06    -49.5000E-06     100.000E-06    -79.3632E-12     57.5161E-12     34.2928E-12         1.00000              1.              1.     1.02245E-06    -1.14489E-06         1.00000    -333.333E-03         1.00000     191.260E-09    -313.696E-09              1.    -265.429E-09     192.361E-09     114.692E-09
              18              0.              0.              0.              0.              0.              0.              0.              0.     2.25514E-03    -123.750E-06     123.750E-06     2.24834E-03     100.000E-06     100.000E-06    -49.4999E-06    -49.5003E-06    -49.5001E-06    -49.5001E-06     100.000E-06     403.933E-12    -310.918E-12     310.918E-12     100.000E-06     100.000E-06    -49.4999E-06    -49.5003E-06    -49.5001E-06    -49.5001E-06     100.000E-06     403.933E-12    -310.918E-12     310.918E-12         1.00000         1.00000         1.00000     1.32228E-06    -1.37959E-06         1.00000    -333.334E-03         1.00000    -28.6526E-09    -28.6527E-09         1.00000     1.35095E-06    -1.03986E-06     1.03986E-06
              19              0.              0.              0.              0.              0.              0.              0.              0.     2.15546E-03    -123.750E-06    -123.750E-06     2.14834E-03     99.9998E-06     99.9998E-06    -49.4996E-06    -49.5002E-06    -49.4999E-06    -49.4999E-06     99.9998E-06     598.842E-12     554.505E-12     554.505E-12     99.9998E-06     99.9998E-06    -49.4996E-06    -49.5002E-06    -49.4999E-06    -49.4999E-06     99.9998E-06     598.842E-12     554.505E-12     554.505E-12     999.998E-03     999.998E-03     999.998E-03     2.03458E-06    -1.97104E-06         1.00000    -333.333E-03     999.998E-03     31.7735E-09     31.7737E-09     999.998E-03     2.00282E-06     1.85453E-06     1.85453E-06
              20              0.              0.              0.              0.              0.              0.              0.              0.     2.15318E-03    -123.750E-06    -74.2502E-06     2.14834E-03    100.0000E-06    100.0000E-06    -49.4998E-06    -49.5002E-06    -49.5000E-06    -49.4999E-06    100.0000E-06    -112.924E-12    -94.7104E-12     61.2385E-12    100.0000E-06    100.0000E-06    -49.4998E-06    -49.5002E-06    -49.5000E-06    -49.4999E-06    100.0000E-06    -112.924E-12    -94.7104E-12     61.2385E-12    1000.000E-03    1000.000E-03    1000.000E-03     1.68896E-06    -1.51573E-06         1.00000    -333.333E-03    1000.000E-03    -269.931E-09     443.164E-09    1000.000E-03    -377.673E-09    -316.757E-09     204.811E-09
              21              0.              0.              0.              0.              0.              0.              0.              0.     2.15204E-03    -123.750E-06    -24.7498E-06     2.14834E-03    100.0000E-06    100.0000E-06    -49.4998E-06    -49.5002E-06    -49.5000E-06    -49.5000E-06    100.0000E-06     176.350E-12     89.4973E-12     10.9995E-12    100.0000E-06    100.0000E-06    -49.4998E-06    -49.5002E-06    -49.5000E-06    -49.5000E-06    100.0000E-06     176.350E-12     89.4973E-12     10.9995E-12              1.    1000.000E-03    1000.000E-03     1.35817E-06    -1.52488E-06         1.00000    -333.333E-03              1.     130.312E-09    -297.025E-09    1000.000E-03     589.801E-09     299.322E-09     36.7875E-09
              22              0.              0.              0.              0.              0.              0.              0.              0.     2.15204E-03    -123.750E-06     24.7498E-06     2.14834E-03    100.0000E-06    100.0000E-06    -49.4998E-06    -49.5002E-06    -49.5000E-06    -49.5000E-06    100.0000E-06    -176.350E-12     89.4973E-12    -10.9996E-12    100.0000E-06    100.0000E-06    -49.4998E-06    -49.5002E-06    -49.5000E-06    -49.5000E-06    100.0000E-06    -176.350E-12     89.4973E-12    -10.9996E-12              1.    1000.000E-03    1000.000E-03     1.35817E-06    -1.52488E-06         1.00000    -333.333E-03              1.     130.313E-09    -297.024E-09    1000.000E-03    -589.801E-09     299.322E-09    -36.7878E-09
              23              0.              0.              0.              0.              0.              0.              0.              0.     2.15318E-03    -123.750E-06     74.2502E-06     2.14834E-03    100.0000E-06    100.0000E-06    -49.4998E-06    -49.5002E-06    -49.5000E-06    -49.4999E-06    100.0000E-06     112.924E-12    -94.7104E-12    -61.2385E-12    100.0000E-06    100.0000E-06    -49.4998E-06    -49.5002E-06    -49.5000E-06    -49.4999E-06    100.0000E-06     112.924E-12    -94.7104E-12    -61.2385E-12    1000.000E-03    1000.000E-03    1000.000E-03     1.68897E-06    -1.51574E-06         1.00000    -333.333E-03    1000.000E-03    -269.930E-09     443.164E-09    1000.000E-03     377.673E-09    -316.757E-09    -204.811E-09
              24              0.              0.              0.              0.              0.              0.              0.              0.     2.15546E-03    -123.750E-06     123.750E-06     2.14834E-03     99.9998E-06     99.9998E-06    -49.4996E-06    -49.5002E-06    -49.4999E-06    -49.4999E-06     99.9998E-06    -598.842E-12     554.505E-12    -554.505E-12     99.9998E-06     99.9998E-06    -49.4996E-06    -49.5002E-06    -49.4999E-06    -49.4999E-06     99.9998E-06    -598.842E-12     554.505E-12    -554.505E-12     999.998E-03     999.998E-03     999.998E-03     2.03457E-06    -1.97104E-06         1.00000    -333.333E-03     999.998E-03     31.7733E-09     31.7733E-09     999.998E-03    -2.00282E-06     1.85453E-06    -1.85453E-06
              25              0.              0.              0.              0.              0.              0.              0.              0.     2.05580E-03    -123.750E-06    -123.750E-06     2.04834E-03     100.000E-06     100.000E-06    -49.4997E-06    -49.5006E-06    -49.5001E-06    -49.5001E-06     100.000E-06    -930.763E-12    -927.304E-12    -927.304E-12     100.000E-06     100.000E-06    -49.4997E-06    -49.5006E-06    -49.5001E-06    -49.5001E-06     100.000E-06    -930.763E-12    -927.304E-12    -927.304E-12         1.00000         1.00000         1.00000     3.07725E-06    -3.14862E-06         1.00001    -333.334E-03         1.00000    -35.6652E-09    -35.6652E-09         1.00000    -3.11292E-06    -3.10135E-06    -3.10135E-06
              26              0.              0.              0.              0.              0.              0.              0.              0.     2.05342E-03    -123.750E-06    -74.2497E-06     2.04834E-03     100.000E-06     100.000E-06    -49.4996E-06    -49.5004E-06    -49.4999E-06    -49.5001E-06     100.000E-06     168.976E-12     141.313E-12    -102.125E-12     100.000E-06     100.000E-06    -49.4996E-06    -49.5004E-06    -49.4999E-06    -49.5001E-06     100.000E-06     168.976E-12     141.313E-12    -102.125E-12         1.00000         1.00000         1.00000     2.36248E-06    -2.61823E-06         1.00000    -333.333E-03         1.00000     394.550E-09    -650.290E-09         1.00000     565.137E-09     472.618E-09    -341.557E-09
              27              0.              0.              0.              0.              0.              0.              0.              0.     2.05222E-03    -123.750E-06    -24.7503E-06     2.04834E-03    100.0000E-06    100.0000E-06    -49.4997E-06    -49.5003E-06    -49.5001E-06    -49.4999E-06    100.0000E-06    -265.881E-12    -156.667E-12    -19.4176E-12    100.0000E-06    100.0000E-06    -49.4997E-06    -49.5003E-06    -49.5001E-06    -49.4999E-06    100.0000E-06    -265.881E-12    -156.667E-12    -19.4176E-12              1.         1.00000         1.00000     2.37331E-06    -2.08438E-06         1.00000    -333.333E-03              1.    -214.580E-09     503.510E-09         1.00000    -889.235E-09    -523.970E-09    -64.9419E-09
              28              0.              0.              0.              0.              0.              0.              0.              0.     2.05222E-03    -123.750E-06     24.7503E-06     2.04834E-03    100.0000E-06    100.0000E-06    -49.4997E-06    -49.5003E-06    -49.5001E-06    -49.4999E-06    100.0000E-06     265.881E-12    -156.667E-12     19.4175E-12    100.0000E-06    100.0000E-06    -49.4997E-06    -49.5003E-06    -49.5001E-06    -49.4999E-06    100.0000E-06     265.881E-12    -156.667E-12     19.4175E-12              1.         1.00000         1.00000     2.37331E-06    -2.08438E-06         1.00000    -333.333E-03              1.    -214.580E-09     503.509E-09         1.00000     889.235E-09    -523.970E-09     64.9415E-09
              29              0.              0.              0.              0.              0.              0.              0.              0.     2.05342E-03    -123.750E-06     74.2497E-06     2.04834E-03     100.000E-06     100.000E-06    -49.4996E-06    -49.5004E-06    -49.4999E-06    -49.5001E-06     100.000E-06    -168.976E-12     141.313E-12     102.125E-12     100.000E-06     100.000E-06    -49.4996E-06    -49.5004E-06    -49.4999E-06    -49.5001E-06     100.000E-06    -168.976E-12     141.313E-12     102.125E-12         1.00000         1.00000         1.00000     2.36248E-06    -2.61822E-06         1.00000    -333.333E-03         1.00000     394.550E-09    -650.290E-09         1.00000    -565.136E-09     472.618E-09     341.556E-09
              30              0.              0.              0.              0.              0.              0.              0.              0.     2.05580E-03    -123.750E-06     123.750E-06     2.04834E-03     100.000E-06     100.000E-06    -49.4997E-06    -49.5006E-06    -49.5001E-06    -49.5001E-06     100.000E-06     930.763E-12    -927.304E-12     927.304E-12     100.000E-06     100.000E-06    -49.4997E-06    -49.5006E-06    -49.5001E-06    -49.5001E-06     100.000E-06     930.763E-12    -927.304E-12     927.304E-12         1.00000         1.00000         1.00000     3.07726E-06    -3.14862E-06         1.00001    -333.334E-03         1.00000    -35.6656E-09    -35.6652E-09         1.00000     3.11292E-06    -3.10135E-06     3.10135E-06
              31              0.              0.              0.              0.              0.              0.              0.              0.     1.95618E-03    -123.749E-06    -123.749E-06     1.94834E-03     99.9996E-06     99.9996E-06    -49.4991E-06    -49.5005E-06    -49.4998E-06    -49.4998E-06     99.9996E-06     1.47682E-09     1.51548E-09     1.51548E-09     99.9996E-06     99.9996E-06    -49.4991E-06    -49.5005E-06    -49.4998E-06    -49.4998E-06     99.9996E-06     1.47682E-09     1.51548E-09     1.51548E-09     999.996E-03     999.996E-03     999.996E-03     4.97206E-06    -4.90621E-06         1.00000    -333.332E-03     999.996E-03     32.9710E-09     32.9710E-09     999.996E-03     4.93918E-06     5.06849E-06     5.06849E-06
              32              0.              0.              0.              0.              0.              0.              0.              0.     1.95368E-03    -123.750E-06    -74.2505E-06     1.94834E-03    100.0000E-06    100.0000E-06    -49.4994E-06    -49.5006E-06    -49.5001E-06    -49.4999E-06    100.0000E-06    -257.536E-12    -197.679E-12     165.422E-12    100.0000E-06    100.0000E-06    -49.4994E-06    -49.5006E-06    -49.5001E-06    -49.4999E-06    100.0000E-06    -257.536E-12    -197.679E-12     165.422E-12    1000.000E-03    1000.000E-03    1000.000E-03     4.14722E-06    -3.75729E-06         1.00000    -333.333E-03    1000.000E-03    -581.823E-09     971.771E-09    1000.000E-03    -861.323E-09    -661.132E-09     553.251E-09
              33              0.              0.              0.              0.              0.              0.              0.              0.     1.95242E-03    -123.750E-06    -24.7495E-06     1.94834E-03    100.0000E-06    100.0000E-06    -49.4995E-06    -49.5005E-06    -49.4999E-06    -49.5001E-06    100.0000E-06     408.204E-12     269.384E-12     32.8401E-12    100.0000E-06    100.0000E-06    -49.4995E-06    -49.5005E-06    -49.4999E-06    -49.5001E-06    100.0000E-06     408.204E-12     269.384E-12     32.8401E-12              1.    1000.000E-03    1000.000E-03     3.27024E-06    -3.77041E-06         1.00000    -333.333E-03              1.     362.870E-09    -863.025E-09    1000.000E-03     1.36523E-06     900.951E-09     109.833E-09
              34              0.              0.              0.              0.              0.              0.              0.              0.     1.95242E-03    -123.750E-06     24.7495E-06     1.94834E-03    100.0000E-06    100.0000E-06    -49.4995E-06    -49.5005E-06    -49.4999E-06    -49.5001E-06    100.0000E-06    -408.204E-12     269.384E-12    -32.8402E-12    100.0000E-06    100.0000E-06    -49.4995E-06    -49.5005E-06    -49.4999E-06    -49.5001E-06    100.0000E-06    -408.204E-12     269.384E-12    -32.8402E-12              1.    1000.000E-03    1000.000E-03     3.27024E-06    -3.77041E-06         1.00000    -333.333E-03              1.     362.870E-09    -863.026E-09    1000.000E-03    -1.36523E-06     900.951E-09    -109.834E-09
              35              0.              0.              0.              0.              0.              0.              0.              0.     1.95368E-03    -123.750E-06     74.2505E-06     1.94834E-03    100.0000E-06    100.0000E-06    -49.4994E-06    -49.5006E-06    -49.5001E-06    -49.4999E-06    100.0000E-06     257.536E-12    -197.679E-12    -165.422E-12    100.0000E-06    100.0000E-06    -49.4994E-06    -49.5006E-06    -49.5001E-06    -49.4999E-06    100.0000E-06     257.536E-12    -197.679E-12    -165.422E-12    1000.000E-03    1000.000E-03    1000.000E-03     4.14722E-06    -3.75729E-06         1.00000    -333.333E-03    1000.000E-03    -581.823E-09     971.771E-09    1000.000E-03     861.323E-09    -661.132E-09    -553.252E-09
              36              0.              0.              0.              0.              0.              0.              0.              0.     1.95618E-03    -123.749E-06     123.749E-06     1.94834E-03     99.9996E-06     99.9996E-06    -49.4991E-06    -49.5005E-06    -49.4998E-06    -49.4998E-06     99.9996E-06    -1.47682E-09     1.51548E-09    -1.51548E-09     99.9996E-06     99.9996E-06    -49.4991E-06    -49.5005E-06    -49.4998E-06    -49.4998E-06     99.9996E-06    -1.47682E-09     1.51548E-09    -1.51548E-09     999.996E-03     999.996E-03     999.996E-03     4.97206E-06    -4.90621E-06         1.00000    -333.332E-03     999.996E-03     32.9715E-09     32.9715E-09     999.996E-03    -4.93918E-06     5.06849E-06    -5.06849E-06
              37              0.              0.              0.              0.              0.              0.              0.              0.     1.85660E-03    -123.751E-06    -123.751E-06     1.84834E-03     100.001E-06     100.001E-06    -49.4992E-06    -49.5015E-06    -49.5003E-06    -49.5003E-06     100.001E-06    -2.36331E-09    -2.45700E-09    -2.45700E-09     100.001E-06     100.001E-06    -49.4992E-06    -49.5015E-06    -49.5003E-06    -49.5003E-06     100.001E-06    -2.36331E-09    -2.45700E-09    -2.45700E-09         1.00001         1.00001         1.00001     7.89059E-06    -7.91774E-06         1.00001    -333.336E-03         1.00001    -13.4523E-09    -13.4514E-09         1.00001    -7.90404E-06    -8.21740E-06    -8.21740E-06
              38              0.              0.              0.              0.              0.              0.              0.              0.     1.85396E-03    -123.750E-06    -74.2492E-06     1.84834E-03     100.000E-06     100.000E-06    -49.4991E-06    -49.5010E-06    -49.4999E-06    -49.5002E-06     100.000E-06     393.540E-12     257.414E-12    -267.309E-12     100.000E-06     100.000E-06    -49.4991E-06    -49.5010E-06    -49.4999E-06    -49.5002E-06     100.000E-06     393.540E-12     257.414E-12    -267.309E-12         1.00000         1.00000         1.00000     6.03354E-06    -6.62451E-06         1.00001    -333.333E-03         1.00000     854.968E-09    -1.44589E-06         1.00000     1.31619E-06     860.917E-09    -894.010E-09
              39              0.              0.              0.              0.              0.              0.              0.              0.     1.85264E-03    -123.750E-06    -24.7508E-06     1.84834E-03     100.000E-06     100.000E-06    -49.4992E-06    -49.5008E-06    -49.5002E-06    -49.4998E-06     100.000E-06    -629.953E-12    -464.119E-12    -56.3504E-12     100.000E-06     100.000E-06    -49.4992E-06    -49.5008E-06    -49.5002E-06    -49.4998E-06     100.000E-06    -629.953E-12    -464.119E-12    -56.3504E-12              1.         1.00000         1.00000     6.04898E-06    -5.16301E-06         1.00001    -333.334E-03              1.    -621.273E-09     1.50727E-06         1.00000    -2.10687E-06    -1.55224E-06    -188.463E-09
              40              0.              0.              0.              0.              0.              0.              0.              0.     1.85264E-03    -123.750E-06     24.7508E-06     1.84834E-03     100.000E-06     100.000E-06    -49.4992E-06    -49.5008E-06    -49.5002E-06    -49.4998E-06     100.000E-06     629.953E-12    -464.119E-12     56.3503E-12     100.000E-06     100.000E-06    -49.4992E-06    -49.5008E-06    -49.5002E-06    -49.4998E-06     100.000E-06     629.953E-12    -464.119E-12     56.3503E-12              1.         1.00000         1.00000     6.04898E-06    -5.16301E-06         1.00001    -333.334E-03              1.    -621.273E-09     1.50727E-06         1.00000     2.10687E-06    -1.55224E-06     188.463E-09
              41              0.              0.              0.              0.              0.              0.              0.              0.     1.85396E-03    -123.750E-06     74.2492E-06     1.84834E-03     100.000E-06     100.000E-06    -49.4991E-06    -49.5010E-06    -49.4999E-06    -49.5002E-06     100.000E-06    -393.540E-12     257.414E-12     267.309E-12     100.000E-06     100.000E-06    -49.4991E-06    -49.5010E-06    -49.4999E-06    -49.5002E-06     100.000E-06    -393.540E-12     257.414E-12     267.309E-12         1.00000         1.00000         1.00000     6.03354E-06    -6.62451E-06         1.00001    -333.333E-03         1.00000     854.968E-09    -1.44589E-06         1.00000    -1.31619E-06     860.917E-09     894.010E-09
              42              0.              0.              0.              0.              0.              0.              0.              0.     1.85660E-03    -123.751E-06     123.751E-06     1.84834E-03     100.001E-06     100.001E-06    -49.4992E-06    -49.5015E-06    -49.5003E-06    -49.5003E-06     100.001E-06     2.36331E-09    -2.45700E-09     2.45700E-09     100.001E-06     100.001E-06    -49.4992E-06    -49.5015E-06    -49.5003E-06    -49.5003E-06     100.001E-06     2.36331E-09    -2.45700E-09     2.45700E-09         1.00001         1.00001         1.00001     7.89059E-06    -7.91774E-06         1.00001    -333.336E-03         1.00001    -13.4514E-09    -13.4514E-09         1.00001     7.90404E-06    -8.21740E-06     8.21740E-06
              43              0.              0.              0.              0.              0.              0.              0.              0.     1.75708E-03    -123.748E-06    -123.748E-06     1.74834E-03     99.9989E-06     99.9989E-06    -49.4976E-06    -49.5014E-06    -49.4995E-06    -49.4995E-06     99.9989E-06     3.79239E-09     3.97132E-09     3.97132E-09     99.9989E-06     99.9989E-06    -49.4976E-06    -49.5014E-06    -49.4995E-06    -49.4995E-06     99.9989E-06     3.79239E-09     3.97132E-09     3.97132E-09     999.989E-03     999.989E-03     999.989E-03     12.6283E-06    -12.7381E-06         1.00000    -333.330E-03     999.989E-03    -54.5615E-09    -54.5615E-09     999.989E-03     12.6836E-06     13.2820E-06     13.2820E-06
              44              0.              0.              0.              0.              0.              0.              0.              0.     1.75428E-03    -123.750E-06    -74.2512E-06     1.74834E-03     99.9999E-06     99.9999E-06    -49.4984E-06    -49.5015E-06    -49.5002E-06    -49.4997E-06     99.9999E-06    -601.505E-12    -302.175E-12     429.256E-12     99.9999E-06     99.9999E-06    -49.4984E-06    -49.5015E-06    -49.5002E-06    -49.4997E-06     99.9999E-06    -601.505E-12    -302.175E-12     429.256E-12     999.999E-03     999.999E-03     999.999E-03     10.6156E-06    -9.72907E-06         1.00001    -333.333E-03     999.999E-03    -1.24231E-06     2.12895E-06     999.999E-03    -2.01172E-06    -1.01062E-06     1.43564E-06
              45              0.              0.              0.              0.              0.              0.              0.              0.     1.75289E-03    -123.750E-06    -24.7488E-06     1.74834E-03    100.0000E-06    100.0000E-06    -49.4987E-06    -49.5013E-06    -49.4997E-06    -49.5003E-06    100.0000E-06     969.415E-12     799.001E-12     96.0787E-12    100.0000E-06    100.0000E-06    -49.4987E-06    -49.5013E-06    -49.4997E-06    -49.5003E-06    100.0000E-06     969.415E-12     799.001E-12     96.0787E-12              1.     999.999E-03     999.999E-03     8.16303E-06    -9.74918E-06         1.00001    -333.333E-03              1.     1.05997E-06    -2.64603E-06     999.999E-03     3.24219E-06     2.67224E-06     321.333E-09
              46              0.              0.              0.              0.              0.              0.              0.              0.     1.75289E-03    -123.750E-06     24.7488E-06     1.74834E-03    100.0000E-06    100.0000E-06    -49.4987E-06    -49.5013E-06    -49.4997E-06    -49.5003E-06    100.0000E-06    -969.415E-12     799.001E-12    -96.0787E-12    100.0000E-06    100.0000E-06    -49.4987E-06    -49.5013E-06    -49.4997E-06    -49.5003E-06    100.0000E-06    -969.415E-12     799.001E-12    -96.0787E-12              1.     999.999E-03     999.999E-03     8.16303E-06    -9.74917E-06         1.00001    -333.333E-03              1.     1.05998E-06    -2.64603E-06     999.999E-03    -3.24219E-06     2.67224E-06    -321.334E-09
              47              0.              0.              0.              0.              0.              0.              0.              0.     1.75428E-03    -123.750E-06     74.2512E-06     1.74834E-03     99.9999E-06     99.9999E-06    -49.4984E-06    -49.5015E-06    -49.5002E-06    -49.4997E-06     99.9999E-06     601.505E-12    -302.175E-12    -429.256E-12     99.9999E-06     99.9999E-06    -49.4984E-06    -49.5015E-06    -49.5002E-06    -49.4997E-06     99.9999E-06     601.505E-12    -302.175E-12    -429.256E-12     999.999E-03     999.999E-03     999.999E-03     10.6156E-06    -9.72907E-06         1.00001    -333.333E-03     999.999E-03    -1.24231E-06     2.12895E-06     999.999E-03     2.01172E-06    -1.01062E-06    -1.43564E-06
              48              0.              0.              0.              0.              0.              0.              0.              0.     1.75708E-03    -123.748E-06     123.748E-06     1.74834E-03     99.9989E-06     99.9989E-06    -49.4976E-06    -49.5014E-06    -49.4995E-06    -49.4995E-06     99.9989E-06    -3.79239E-09     3.97132E-09    -3.97132E-09     99.9989E-06     99.9989E-06    -49.4976E-06    -49.5014E-06    -49.4995E-06    -49.4995E-06     99.9989E-06    -3.79239E-09     3.97132E-09    -3.97132E-09     999.989E-03     999.989E-03     999.989E-03     12.6283E-06    -12.7381E-06         1.00000    -333.330E-03     999.989E-03    -54.5615E-09    -54.5615E-09     999.989E-03    -12.6836E-06     13.2820E-06    -13.2820E-06
              49              0.              0.              0.              0.              0.              0.              0.              0.     1.65760E-03    -123.753E-06    -123.753E-06     1.64834E-03     100.002E-06     100.002E-06    -49.4978E-06    -49.5039E-06    -49.5009E-06    -49.5009E-06     100.002E-06    -6.09723E-09    -6.40747E-09    -6.40747E-09     100.002E-06     100.002E-06    -49.4978E-06    -49.5039E-06    -49.5009E-06    -49.5009E-06     100.002E-06    -6.09723E-09    -6.40747E-09    -6.40747E-09         1.00002         1.00002         1.00002     20.5955E-06    -20.1904E-06         1.00004    -333.339E-03         1.00002     203.419E-09     203.419E-09         1.00002    -20.3921E-06    -21.4297E-06    -21.4297E-06
              50              0.              0.              0.              0.              0.              0.              0.              0.     1.65465E-03    -123.750E-06    -74.2481E-06     1.64834E-03     100.000E-06     100.000E-06    -49.4977E-06    -49.5026E-06    -49.4998E-06    -49.5005E-06     100.000E-06     908.855E-12     287.457E-12    -675.018E-12     100.000E-06     100.000E-06    -49.4977E-06    -49.5026E-06    -49.4998E-06    -49.5005E-06     100.000E-06     908.855E-12     287.457E-12    -675.018E-12         1.00000         1.00000         1.00000     15.6906E-06    -17.0570E-06         1.00002    -333.333E-03         1.00000     1.74436E-06    -3.11042E-06         1.00000     3.03965E-06     961.395E-09    -2.25759E-06
              51              0.              0.              0.              0.              0.              0.              0.              0.     1.65316E-03    -123.751E-06    -24.7520E-06     1.64834E-03     100.000E-06     100.000E-06    -49.4979E-06    -49.5021E-06    -49.5005E-06    -49.4995E-06     100.000E-06    -1.48707E-09    -1.38063E-09    -155.507E-12     100.000E-06     100.000E-06    -49.4979E-06    -49.5021E-06    -49.5005E-06    -49.4995E-06     100.000E-06    -1.48707E-09    -1.38063E-09    -155.507E-12         1.00000         1.00000         1.00000     15.6899E-06    -12.9706E-06         1.00001    -333.335E-03              1.    -1.86976E-06     4.58934E-06         1.00000    -4.97347E-06    -4.61749E-06    -520.091E-09
              52              0.              0.              0.              0.              0.              0.              0.              0.     1.65316E-03    -123.751E-06     24.7520E-06     1.64834E-03     100.000E-06     100.000E-06    -49.4979E-06    -49.5021E-06    -49.5005E-06    -49.4995E-06     100.000E-06     1.48707E-09    -1.38063E-09     155.507E-12     100.000E-06     100.000E-06    -49.4979E-06    -49.5021E-06    -49.5005E-06    -49.4995E-06     100.000E-06     1.48707E-09    -1.38063E-09     155.507E-12         1.00000         1.00000         1.00000     15.6899E-06    -12.9706E-06         1.00001    -333.335E-03              1.    -1.86976E-06     4.58934E-06         1.00000     4.97347E-06    -4.61749E-06     520.091E-09
              53              0.              0.              0.              0.              0.              0.              0.              0.     1.65465E-03    -123.750E-06     74.2481E-06     1.64834E-03     100.000E-06     100.000E-06    -49.4977E-06    -49.5026E-06    -49.4998E-06    -49.5005E-06     100.000E-06    -908.855E-12     287.457E-12     675.018E-12     100.000E-06     100.000E-06    -49.4977E-06    -49.5026E-06    -49.4998E-06    -49.5005E-06     100.000E-06    -908.855E-12     287.457E-12     675.018E-12         1.00000         1.00000         1.00000     15.6906E-06    -17.0570E-06         1.00002    -333.333E-03         1.00000     1.74436E-06    -3.11042E-06         1.00000    -3.03965E-06     961.395E-09     2.25759E-06
              54              0.              0.              0.              0.              0.              0.              0.              0.     1.65760E-03    -123.753E-06     123.753E-06     1.64834E-03     100.002E-06     100.002E-06    -49.4978E-06    -49.5039E-06    -49.5009E-06    -49.5009E-06     100.002E-06     6.09723E-09    -6.40747E-09     6.40747E-09     100.002E-06     100.002E-06    -49.4978E-06    -49.5039E-06    -49.5009E-06    -49.5009E-06     100.002E-06     6.09723E-09    -6.40747E-09     6.40747E-09         1.00002         1.00002         1.00002     20.5955E-06    -20.1904E-06         1.00004    -333.339E-03         1.00002     203.419E-09     203.419E-09         1.00002     20.3921E-06    -21.4297E-06     21.4297E-06
              55              0.              0.              0.              0.              0.              0.              0.              0.     1.55820E-03    -123.745E-06    -123.745E-06     1.54835E-03     99.9971E-06     99.9971E-06    -49.4937E-06    -49.5035E-06    -49.4986E-06    -49.4986E-06     99.9971E-06     9.80054E-09     10.3616E-09     10.3616E-09     99.9971E-06     99.9971E-06    -49.4937E-06    -49.5035E-06    -49.4986E-06    -49.4986E-06     99.9971E-06     9.80054E-09     10.3616E-09     10.3616E-09     999.971E-03     999.970E-03     999.970E-03     32.1990E-06    -33.3519E-06         1.00000    -333.323E-03     999.971E-03    -574.149E-09    -574.149E-09     999.970E-03     32.7777E-06     34.6541E-06     34.6541E-06
              56              0.              0.              0.              0.              0.              0.              0.              0.     1.55505E-03    -123.750E-06    -74.2532E-06     1.54834E-03     99.9996E-06     99.9996E-06    -49.4958E-06    -49.5037E-06    -49.5003E-06    -49.4993E-06     99.9996E-06    -1.36746E-09    -81.9198E-12     1.11798E-09     99.9996E-06     99.9996E-06    -49.4958E-06    -49.5037E-06    -49.5003E-06    -49.4993E-06     99.9996E-06    -1.36746E-09    -81.9198E-12     1.11798E-09     999.996E-03     999.997E-03     999.997E-03     27.3606E-06    -25.4906E-06         1.00002    -333.333E-03     999.996E-03    -2.42297E-06     4.29377E-06     999.997E-03    -4.57344E-06    -273.979E-09     3.73906E-06
              57              0.              0.              0.              0.              0.              0.              0.              0.     1.55348E-03    -123.749E-06    -24.7468E-06     1.54834E-03     100.000E-06     100.000E-06    -49.4966E-06    -49.5034E-06    -49.4991E-06    -49.5009E-06     100.000E-06     2.26035E-09     2.42187E-09     289.303E-12     100.000E-06     100.000E-06    -49.4966E-06    -49.5034E-06    -49.4991E-06    -49.5009E-06     100.000E-06     2.26035E-09     2.42187E-09     289.303E-12              1.     999.997E-03     999.997E-03     20.3258E-06    -25.5059E-06         1.00002    -333.331E-03         1.00000     3.17084E-06    -8.35027E-06     999.997E-03     7.55970E-06     8.09990E-06     967.570E-09
              58              0.              0.              0.              0.              0.              0.              0.              0.     1.55348E-03    -123.749E-06     24.7468E-06     1.54834E-03     100.000E-06     100.000E-06    -49.4966E-06    -49.5034E-06    -49.4991E-06    -49.5009E-06     100.000E-06    -2.26035E-09     2.42187E-09    -289.303E-12     100.000E-06     100.000E-06    -49.4966E-06    -49.5034E-06    -49.4991E-06    -49.5009E-06     100.000E-06    -2.26035E-09     2.42187E-09    -289.303E-12              1.     999.997E-03     999.997E-03     20.3258E-06    -25.5059E-06         1.00002    -333.331E-03         1.00000     3.17084E-06    -8.35027E-06     999.997E-03    -7.55970E-06     8.09990E-06    -967.570E-09
              59              0.              0.              0.              0.              0.              0.              0.              0.     1.55505E-03    -123.750E-06     74.2532E-06     1.54834E-03     99.9996E-06     99.9996E-06    -49.4958E-06    -49.5037E-06    -49.5003E-06    -49.4993E-06     99.9996E-06     1.36746E-09    -81.9198E-12    -1.11798E-09     99.9996E-06     99.9996E-06    -49.4958E-06    -49.5037E-06    -49.5003E-06    -49.4993E-06     99.9996E-06     1.36746E-09    -81.9198E-12    -1.11798E-09     999.996E-03     999.997E-03     999.997E-03     27.3606E-06    -25.4906E-06         1.00002    -333.333E-03     999.996E-03    -2.42297E-06     4.29377E-06     999.997E-03     4.57344E-06    -273.979E-09    -3.73906E-06
              60              0.              0.              0.              0.              0.              0.              0.              0.     1.55820E-03    -123.745E-06     123.745E-06     1.54835E-03     99.9971E-06     99.9971E-06    -49.4937E-06    -49.5035E-06    -49.4986E-06    -49.4986E-06     99.9971E-06    -9.80054E-09     10.3616E-09    -10.3616E-09     99.9971E-06     99.9971E-06    -49.4937E-06    -49.5035E-06    -49.4986E-06    -49.4986E-06     99.9971E-06    -9.80054E-09     10.3616E-09    -10.3616E-09     999.971E-03     999.970E-03     999.970E-03     32.1990E-06    -33.3519E-06         1.00000    -333.323E-03     999.971E-03    -574.149E-09    -574.149E-09     999.970E-03    -32.7777E-06     34.6541E-06    -34.6541E-06
              61              0.              0.              0.              0.              0.              0.              0.              0.     1.45886E-03    -123.758E-06    -123.758E-06     1.44833E-03     100.005E-06     100.005E-06    -49.4944E-06    -49.5102E-06    -49.5023E-06    -49.5023E-06     100.005E-06    -15.7525E-09    -16.6804E-09    -16.6804E-09     100.005E-06     100.005E-06    -49.4944E-06    -49.5102E-06    -49.5023E-06    -49.5023E-06     100.005E-06    -15.7525E-09    -16.6804E-09    -16.6804E-09         1.00005         1.00005         1.00005     54.0124E-06    -51.3676E-06         1.00010    -333.350E-03         1.00005     1.32853E-06     1.32853E-06         1.00005    -52.6839E-06    -55.7872E-06    -55.7872E-06
              62              0.              0.              0.              0.              0.              0.              0.              0.     1.45551E-03    -123.750E-06    -74.2449E-06     1.44834E-03     100.001E-06     100.001E-06    -49.4940E-06    -49.5067E-06    -49.4997E-06    -49.5010E-06     100.001E-06     2.03085E-09    -473.827E-12    -1.66160E-09     100.001E-06     100.001E-06    -49.4940E-06    -49.5067E-06    -49.4997E-06    -49.5010E-06     100.001E-06     2.03085E-09    -473.827E-12    -1.66160E-09         1.00001         1.00001         1.00001     41.0554E-06    -44.0787E-06         1.00005    -333.334E-03         1.00001     3.05247E-06    -6.07361E-06         1.00001     6.79213E-06    -1.58471E-06    -5.55721E-06
              63              0.              0.              0.              0.              0.              0.              0.              0.     1.45382E-03    -123.752E-06    -24.7552E-06     1.44834E-03     100.000E-06     100.000E-06    -49.4945E-06    -49.5055E-06    -49.5015E-06    -49.4985E-06     100.000E-06    -3.40163E-09    -4.16403E-09    -415.946E-12     100.000E-06     100.000E-06    -49.4945E-06    -49.5055E-06    -49.5015E-06    -49.4985E-06     100.000E-06    -3.40163E-09    -4.16403E-09    -415.946E-12         1.00000         1.00000         1.00000     40.9480E-06    -32.4951E-06         1.00004    -333.338E-03         1.00000    -5.68720E-06     14.1418E-06         1.00000    -11.3767E-06    -13.9265E-06    -1.39112E-06
              64              0.              0.              0.              0.              0.              0.              0.              0.     1.45382E-03    -123.752E-06     24.7552E-06     1.44834E-03     100.000E-06     100.000E-06    -49.4945E-06    -49.5055E-06    -49.5015E-06    -49.4985E-06     100.000E-06     3.40163E-09    -4.16403E-09     415.946E-12     100.000E-06     100.000E-06    -49.4945E-06    -49.5055E-06    -49.5015E-06    -49.4985E-06     100.000E-06     3.40163E-09    -4.16403E-09     415.946E-12         1.00000         1.00000         1.00000     40.9480E-06    -32.4951E-06         1.00004    -333.338E-03         1.00000    -5.68720E-06     14.1418E-06         1.00000     11.3767E-06    -13.9265E-06     1.39112E-06
              65              0.              0.              0.              0.              0.              0.              0.              0.     1.45551E-03    -123.750E-06     74.2449E-06     1.44834E-03     100.001E-06     100.001E-06    -49.4940E-06    -49.5067E-06    -49.4997E-06    -49.5010E-06     100.001E-06    -2.03085E-09    -473.827E-12     1.66160E-09     100.001E-06     100.001E-06    -49.4940E-06    -49.5067E-06    -49.4997E-06    -49.5010E-06     100.001E-06    -2.03085E-09    -473.827E-12     1.66160E-09         1.00001         1.00001         1.00001     41.0554E-06    -44.0787E-06         1.00005    -333.334E-03         1.00001     3.05246E-06    -6.07361E-06         1.00001    -6.79213E-06    -1.58471E-06     5.55721E-06
              66              0.              0.              0.              0.              0.              0.              0.              0.     1.45886E-03    -123.758E-06     123.758E-06     1.44833E-03     100.005E-06     100.005E-06    -49.4944E-06    -49.5102E-06    -49.5023E-06    -49.5023E-06     100.005E-06     15.7525E-09    -16.6804E-09     16.6804E-09     100.005E-06     100.005E-06    -49.4944E-06    -49.5102E-06    -49.5023E-06    -49.5023E-06     100.005E-06     15.7525E-09    -16.6804E-09     16.6804E-09         1.00005         1.00005         1.00005     54.0124E-06    -51.3676E-06         1.00010    -333.350E-03         1.00005     1.32853E-06     1.32853E-06         1.00005     52.6839E-06    -55.7872E-06     55.7872E-06
              67              0.              0.              0.              0.              0.              0.              0.              0.     1.35967E-03    -123.737E-06    -123.737E-06     1.34836E-03     99.9921E-06     99.9921E-06    -49.4834E-06    -49.5088E-06    -49.4961E-06    -49.4961E-06     99.9921E-06     25.3697E-09     27.0267E-09     27.0267E-09     99.9921E-06     99.9921E-06    -49.4834E-06    -49.5088E-06    -49.4961E-06    -49.4961E-06     99.9921E-06     25.3697E-09     27.0267E-09     27.0267E-09     999.921E-03     999.918E-03     999.918E-03     82.0647E-06    -87.6001E-06         1.00001    -333.304E-03     999.921E-03    -2.75143E-06    -2.75143E-06     999.918E-03     84.8487E-06     90.3904E-06     90.3904E-06
              68              0.              0.              0.              0.              0.              0.              0.              0.     1.35604E-03    -123.750E-06    -74.2583E-06     1.34834E-03     99.9986E-06     99.9986E-06    -49.4890E-06    -49.5096E-06    -49.5001E-06    -49.4985E-06     99.9986E-06    -2.91805E-09     2.02393E-09     2.84419E-09     99.9986E-06     99.9986E-06    -49.4890E-06    -49.5096E-06    -49.5001E-06    -49.4985E-06     99.9986E-06    -2.91805E-09     2.02393E-09     2.84419E-09     999.986E-03     999.988E-03     999.988E-03     70.8100E-06    -67.1140E-06         1.00006    -333.331E-03     999.986E-03    -3.62786E-06     7.32940E-06     999.988E-03    -9.75938E-06     6.76900E-06     9.51233E-06
              69              0.              0.              0.              0.              0.              0.              0.              0.     1.35424E-03    -123.747E-06    -24.7418E-06     1.34834E-03    100.0000E-06    100.0000E-06    -49.4912E-06    -49.5088E-06    -49.4973E-06    -49.5027E-06    100.0000E-06     5.08868E-09     7.49071E-09     830.044E-12    100.0000E-06    100.0000E-06    -49.4912E-06    -49.5088E-06    -49.4973E-06    -49.5027E-06    100.0000E-06     5.08868E-09     7.49071E-09     830.044E-12    1000.000E-03     999.992E-03     999.992E-03     50.5239E-06    -66.8576E-06         1.00006    -333.325E-03    1000.000E-03     9.97559E-06    -26.3047E-06     999.992E-03     17.0190E-06     25.0525E-06     2.77607E-06
              70              0.              0.              0.              0.              0.              0.              0.              0.     1.35424E-03    -123.747E-06     24.7418E-06     1.34834E-03    100.0000E-06    100.0000E-06    -49.4912E-06    -49.5088E-06    -49.4973E-06    -49.5027E-06    100.0000E-06    -5.08868E-09     7.49071E-09    -830.044E-12    100.0000E-06    100.0000E-06    -49.4912E-06    -49.5088E-06    -49.4973E-06    -49.5027E-06    100.0000E-06    -5.08868E-09     7.49071E-09    -830.044E-12    1000.000E-03     999.992E-03     999.992E-03     50.5239E-06    -66.8576E-06         1.00006    -333.325E-03    1000.000E-03     9.97559E-06    -26.3047E-06     999.992E-03    -17.0190E-06     25.0525E-06    -2.77607E-06
              71              0.              0.              0.              0.              0.              0.              0.              0.     1.35604E-03    -123.750E-06     74.2583E-06     1.34834E-03     99.9986E-06     99.9986E-06    -49.4890E-06    -49.5096E-06    -49.5001E-06    -49.4985E-06     99.9986E-06     2.91805E-09     2.02393E-09    -2.84419E-09     99.9986E-06     99.9986E-06    -49.4890E-06    -49.5096E-06    -49.5001E-06    -49.4985E-06     99.9986E-06     2.91805E-09     2.02393E-09    -2.84419E-09     999.986E-03     999.988E-03     999.988E-03     70.8100E-06    -67.1140E-06         1.00006    -333.331E-03     999.986E-03    -3.62786E-06     7.32940E-06     999.988E-03     9.75938E-06     6.76900E-06    -9.51233E-06
              72              0.              0.              0.              0.              0.              0.              0.              0.     1.35967E-03    -123.737E-06     123.737E-06     1.34836E-03     99.9921E-06     99.9921E-06    -49.4834E-06    -49.5088E-06    -49.4961E-06    -49.4961E-06     99.9921E-06    -25.3697E-09     27.0267E-09    -27.0267E-09     99.9921E-06     99.9921E-06    -49.4834E-06    -49.5088E-06    -49.4961E-06    -49.4961E-06     99.9921E-06    -25.3697E-09     27.0267E-09    -27.0267E-09     999.921E-03     999.918E-03     999.918E-03     82.0647E-06    -87.6001E-06         1.00001    -333.304E-03     999.921E-03    -2.75143E-06    -2.75143E-06     999.918E-03    -84.8487E-06     90.3904E-06    -90.3904E-06
              73              0.              0.              0.              0.              0.              0.              0.              0.     1.26052E-03    -123.771E-06    -123.771E-06     1.24831E-03     100.012E-06     100.012E-06    -49.4858E-06    -49.5264E-06    -49.5061E-06    -49.5061E-06     100.012E-06    -40.6234E-09    -43.6011E-09    -43.6011E-09     100.012E-06     100.012E-06    -49.4858E-06    -49.5264E-06    -49.5061E-06    -49.5061E-06     100.012E-06    -40.6234E-09    -43.6011E-09    -43.6011E-09         1.00012         1.00013         1.00013     142.184E-06    -129.631E-06         1.00026    -333.381E-03         1.00012     6.32032E-06     6.32032E-06         1.00013    -135.864E-06    -145.823E-06    -145.823E-06
              74              0.              0.              0.              0.              0.              0.              0.              0.     1.25666E-03    -123.751E-06    -74.2367E-06     1.24834E-03     100.002E-06     100.002E-06    -49.4844E-06    -49.5177E-06    -49.5001E-06    -49.5019E-06     100.002E-06     4.31342E-09    -5.26427E-09    -4.33922E-09     100.002E-06     100.002E-06    -49.4844E-06    -49.5177E-06    -49.5001E-06    -49.5019E-06     100.002E-06     4.31342E-09    -5.26427E-09    -4.33922E-09         1.00002         1.00002         1.00002     108.927E-06    -113.749E-06         1.00013    -333.338E-03         1.00002     3.63895E-06    -8.44618E-06         1.00002     14.4262E-06    -17.6062E-06    -14.5124E-06
              75              0.              0.              0.              0.              0.              0.              0.              0.     1.25470E-03    -123.756E-06    -24.7633E-06     1.24833E-03     99.9999E-06     99.9999E-06    -49.4858E-06    -49.5140E-06    -49.5046E-06    -49.4952E-06     99.9999E-06    -7.34848E-09    -12.9283E-09    -1.31089E-09     99.9999E-06     99.9999E-06    -49.4858E-06    -49.5140E-06    -49.5046E-06    -49.4952E-06     99.9999E-06    -7.34848E-09    -12.9283E-09    -1.31089E-09     999.998E-03         1.00001         1.00001     108.785E-06    -79.2792E-06         1.00009    -333.348E-03     999.998E-03    -16.7156E-06     46.2338E-06         1.00001    -24.5769E-06    -43.2386E-06    -4.38426E-06
              76              0.              0.              0.              0.              0.              0.              0.              0.     1.25470E-03    -123.756E-06     24.7633E-06     1.24833E-03     99.9999E-06     99.9999E-06    -49.4858E-06    -49.5140E-06    -49.5046E-06    -49.4952E-06     99.9999E-06     7.34848E-09    -12.9283E-09     1.31089E-09     99.9999E-06     99.9999E-06    -49.4858E-06    -49.5140E-06    -49.5046E-06    -49.4952E-06     99.9999E-06     7.34848E-09    -12.9283E-09     1.31089E-09     999.998E-03         1.00001         1.00001     108.785E-06    -79.2792E-06         1.00009    -333.348E-03     999.998E-03    -16.7156E-06     46.2338E-06         1.00001     24.5769E-06    -43.2386E-06     4.38426E-06
              77              0.              0.              0.              0.              0.              0.              0.              0.     1.25666E-03    -123.751E-06     74.2367E-06     1.24834E-03     100.002E-06     100.002E-06    -49.4844E-06    -49.5177E-06    -49.5001E-06    -49.5019E-06     100.002E-06    -4.31342E-09    -5.26427E-09     4.33922E-09     100.002E-06     100.002E-06    -49.4844E-06    -49.5177E-06    -49.5001E-06    -49.5019E-06     100.002E-06    -4.31342E-09    -5.26427E-09     4.33922E-09         1.00002         1.00002         1.00002     108.927E-06    -113.749E-06         1.00013    -333.338E-03         1.00002     3.63895E-06    -8.44618E-06         1.00002    -14.4262E-06    -17.6062E-06     14.5124E-06
              78              0.              0.              0.              0.              0.              0.              0.              0.     1.26052E-03    -123.771E-06     123.771E-06     1.24831E-03     100.012E-06     100.012E-06    -49.4858E-06    -49.5264E-06    -49.5061E-06    -49.5061E-06     100.012E-06     40.6234E-09    -43.6011E-09     43.6011E-09     100.012E-06     100.012E-06    -49.4858E-06    -49.5264E-06    -49.5061E-06    -49.5061E-06     100.012E-06     40.6234E-09    -43.6011E-09     43.6011E-09         1.00012         1.00013         1.00013     142.184E-06    -129.631E-06         1.00026    -333.381E-03         1.00012     6.32032E-06     6.32032E-06         1.00013     135.864E-06    -145.823E-06     145.823E-06
              79              0.              0.              0.              0.              0.              0.              0.              0.     1.16164E-03    -123.715E-06    -123.715E-06     1.14839E-03     99.9794E-06     99.9794E-06    -49.4570E-06    -49.5226E-06    -49.4898E-06    -49.4898E-06     99.9793E-06     65.6747E-09     70.0824E-09     70.0824E-09     99.9794E-06     99.9794E-06    -49.4570E-06    -49.5226E-06    -49.4898E-06    -49.4898E-06     99.9793E-06     65.6747E-09     70.0824E-09     70.0824E-09     999.794E-03     999.783E-03     999.783E-03     208.575E-06    -230.490E-06         1.00001    -333.254E-03     999.794E-03    -10.8421E-06    -10.8421E-06     999.782E-03     219.648E-06     234.389E-06     234.389E-06
              80              0.              0.              0.              0.              0.              0.              0.              0.     1.15737E-03    -123.748E-06    -74.2711E-06     1.14834E-03     99.9960E-06     99.9960E-06    -49.4711E-06    -49.5249E-06    -49.4987E-06    -49.4973E-06     99.9960E-06    -5.53638E-09     11.9440E-09     5.93872E-09     99.9960E-06     99.9960E-06    -49.4711E-06    -49.5249E-06    -49.4987E-06    -49.4973E-06     99.9960E-06    -5.53638E-09     11.9440E-09     5.93872E-09     999.960E-03     999.965E-03     999.965E-03     184.934E-06    -175.347E-06         1.00014    -333.325E-03     999.960E-03     197.784E-09     9.42836E-06     999.965E-03    -18.5163E-06     39.9466E-06     19.8619E-06
              81              0.              0.              0.              0.              0.              0.              0.              0.     1.15527E-03    -123.740E-06    -24.7284E-06     1.14835E-03     99.9993E-06     99.9993E-06    -49.4771E-06    -49.5222E-06    -49.4914E-06    -49.5080E-06     99.9993E-06     10.7729E-09     22.9643E-09     1.61540E-09     99.9993E-06     99.9993E-06    -49.4771E-06    -49.5222E-06    -49.4914E-06    -49.5080E-06     99.9993E-06     10.7729E-09     22.9643E-09     1.61540E-09     999.993E-03     999.972E-03     999.972E-03     129.186E-06    -172.426E-06         1.00014    -333.309E-03     999.993E-03     33.8648E-06    -77.0705E-06     999.972E-03     36.0298E-06     76.8036E-06     5.40268E-06
              82              0.              0.              0.              0.              0.              0.              0.              0.     1.15527E-03    -123.740E-06     24.7284E-06     1.14835E-03     99.9993E-06     99.9993E-06    -49.4771E-06    -49.5222E-06    -49.4914E-06    -49.5080E-06     99.9993E-06    -10.7729E-09     22.9643E-09    -1.61540E-09     99.9993E-06     99.9993E-06    -49.4771E-06    -49.5222E-06    -49.4914E-06    -49.5080E-06     99.9993E-06    -10.7729E-09     22.9643E-09    -1.61540E-09     999.993E-03     999.972E-03     999.972E-03     129.186E-06    -172.426E-06         1.00014    -333.309E-03     999.993E-03     33.8648E-06    -77.0705E-06     999.972E-03    -36.0298E-06     76.8036E-06    -5.40268E-06
              83              0.              0.              0.              0.              0.              0.              0.              0.     1.15737E-03    -123.748E-06     74.2711E-06     1.14834E-03     99.9960E-06     99.9960E-06    -49.4711E-06    -49.5249E-06    -49.4987E-06    -49.4973E-06     99.9960E-06     5.53638E-09     11.9440E-09    -5.93872E-09     99.9960E-06     99.9960E-06    -49.4711E-06    -49.5249E-06    -49.4987E-06    -49.4973E-06     99.9960E-06     5.53638E-09     11.9440E-09    -5.93872E-09     999.960E-03     999.965E-03     999.965E-03     184.934E-06    -175.347E-06         1.00014    -333.325E-03     999.960E-03     197.784E-09     9.42836E-06     999.965E-03     18.5163E-06     39.9466E-06    -19.8619E-06
              84              0.              0.              0.              0.              0.              0.              0.              0.     1.16164E-03    -123.715E-06     123.715E-06     1.14839E-03     99.9794E-06     99.9794E-06    -49.4570E-06    -49.5226E-06    -49.4898E-06    -49.4898E-06     99.9793E-06    -65.6747E-09     70.0824E-09    -70.0824E-09     99.9794E-06     99.9794E-06    -49.4570E-06    -49.5226E-06    -49.4898E-06    -49.4898E-06     99.9793E-06    -65.6747E-09     70.0824E-09    -70.0824E-09     999.794E-03     999.783E-03     999.783E-03     208.575E-06    -230.490E-06         1.00001    -333.254E-03     999.794E-03    -10.8421E-06    -10.8421E-06     999.782E-03    -219.648E-06     234.389E-06    -234.389E-06
              85              0.              0.              0.              0.              0.              0.              0.              0.     1.06278E-03    -123.806E-06    -123.806E-06     1.04826E-03     100.036E-06     100.036E-06    -49.4654E-06    -49.5704E-06    -49.5179E-06    -49.5179E-06     100.036E-06    -104.838E-09    -115.419E-09    -115.419E-09     100.036E-06     100.036E-06    -49.4654E-06    -49.5704E-06    -49.5179E-06    -49.5179E-06     100.036E-06    -104.838E-09    -115.419E-09    -115.419E-09         1.00036         1.00039         1.00039     376.067E-06    -325.830E-06         1.00071    -333.479E-03         1.00036     25.4384E-06     25.4384E-06         1.00039    -350.629E-06    -386.017E-06    -386.017E-06
              86              0.              0.              0.              0.              0.              0.              0.              0.     1.05823E-03    -123.753E-06    -74.2128E-06     1.04834E-03     100.008E-06     100.008E-06    -49.4597E-06    -49.5481E-06    -49.5047E-06    -49.5031E-06     100.008E-06     7.96602E-09    -27.8214E-09    -14.1912E-09     100.008E-06     100.008E-06    -49.4597E-06    -49.5481E-06    -49.5047E-06    -49.5031E-06     100.008E-06     7.96602E-09    -27.8214E-09    -14.1912E-09         1.00008         1.00008         1.00008     298.507E-06    -292.340E-06         1.00037    -333.363E-03         1.00008    -2.32137E-06     8.59394E-06         1.00008     26.6422E-06    -93.0481E-06    -47.4621E-06
              87              0.              0.              0.              0.              0.              0.              0.              0.     1.05589E-03    -123.766E-06    -24.7834E-06     1.04832E-03     99.9984E-06     99.9984E-06    -49.4633E-06    -49.5349E-06    -49.5152E-06    -49.4830E-06     99.9984E-06    -14.5490E-09    -42.6971E-09    -5.82974E-09     99.9984E-06     99.9984E-06    -49.4633E-06    -49.5349E-06    -49.5152E-06    -49.4830E-06     99.9984E-06    -14.5490E-09    -42.6971E-09    -5.82974E-09     999.984E-03         1.00004         1.00004     299.559E-06    -179.758E-06         1.00022    -333.388E-03     999.983E-03    -47.6201E-06     167.522E-06         1.00004    -48.6590E-06    -142.800E-06    -19.4975E-06
              88              0.              0.              0.              0.              0.              0.              0.              0.     1.05589E-03    -123.766E-06     24.7834E-06     1.04832E-03     99.9984E-06     99.9984E-06    -49.4633E-06    -49.5349E-06    -49.5152E-06    -49.4830E-06     99.9984E-06     14.5490E-09    -42.6971E-09     5.82974E-09     99.9984E-06     99.9984E-06    -49.4633E-06    -49.5349E-06    -49.5152E-06    -49.4830E-06     99.9984E-06     14.5490E-09    -42.6971E-09     5.82974E-09     999.984E-03         1.00004         1.00004     299.559E-06    -179.758E-06         1.00022    -333.388E-03     999.983E-03    -47.6201E-06     167.522E-06         1.00004     48.6590E-06    -142.800E-06     19.4975E-06
              89              0.              0.              0.              0.              0.              0.              0.              0.     1.05823E-03    -123.753E-06     74.2128E-06     1.04834E-03     100.008E-06     100.008E-06    -49.4597E-06    -49.5481E-06    -49.5047E-06    -49.5031E-06     100.008E-06    -7.96602E-09    -27.8214E-09     14.1912E-09     100.008E-06     100.008E-06    -49.4597E-06    -49.5481E-06    -49.5047E-06    -49.5031E-06     100.008E-06    -7.96602E-09    -27.8214E-09     14.1912E-09         1.00008         1.00008         1.00008     298.507E-06    -292.340E-06         1.00037    -333.363E-03         1.00008    -2.32137E-06     8.59394E-06         1.00008    -26.6422E-06    -93.0481E-06     47.4621E-06
              90              0.              0.              0.              0.              0.              0.              0.              0.     1.06278E-03    -123.806E-06     123.806E-06     1.04826E-03     100.036E-06     100.036E-06    -49.4654E-06    -49.5704E-06    -49.5179E-06    -49.5179E-06     100.036E-06     104.838E-09    -115.419E-09     115.419E-09     100.036E-06     100.036E-06    -49.4654E-06    -49.5704E-06    -49.5179E-06    -49.5179E-06     100.036E-06     104.838E-09    -115.419E-09     115.419E-09         1.00036         1.00039         1.00039     376.067E-06    -325.830E-06         1.00071    -333.479E-03         1.00036     25.4384E-06     25.4384E-06         1.00039     350.629E-06    -386.017E-06     386.017E-06
              91              0.              0.              0.              0.              0.              0.              0.              0.     964.452E-06    -123.650E-06    -123.650E-06     948.467E-06     99.9549E-06     99.9549E-06    -49.3936E-06    -49.5619E-06    -49.4776E-06    -49.4776E-06     99.9547E-06     168.478E-09     179.818E-09     179.818E-09     99.9549E-06     99.9549E-06    -49.3936E-06    -49.5619E-06    -49.4776E-06    -49.4776E-06     99.9547E-06     168.478E-09     179.818E-09     179.818E-09     999.550E-03     999.504E-03     999.504E-03     517.283E-06    -607.991E-06         1.00011    -333.138E-03     999.549E-03    -44.5204E-06    -44.5204E-06     999.502E-03     563.470E-06     601.396E-06     601.396E-06
              92              0.              0.              0.              0.              0.              0.              0.              0.     959.257E-06    -123.734E-06    -74.3003E-06     948.337E-06     99.9925E-06     99.9925E-06    -49.4262E-06    -49.5663E-06    -49.4940E-06    -49.4984E-06     99.9924E-06    -9.25432E-09     50.4076E-09     5.88194E-09     99.9925E-06     99.9925E-06    -49.4262E-06    -49.5663E-06    -49.4940E-06    -49.4984E-06     99.9924E-06    -9.25432E-09     50.4076E-09     5.88194E-09     999.925E-03     999.942E-03     999.942E-03     485.544E-06    -451.213E-06         1.00039    -333.325E-03     999.924E-03     32.0154E-06     2.60809E-06     999.941E-03    -30.9509E-06     168.587E-06     19.6720E-06
              93              0.              0.              0.              0.              0.              0.              0.              0.     956.741E-06    -123.714E-06    -24.6911E-06     948.387E-06     99.9969E-06     99.9969E-06    -49.4401E-06    -49.5569E-06    -49.4747E-06    -49.5223E-06     99.9968E-06     19.4018E-09     67.4941E-09    -500.032E-12     99.9969E-06     99.9969E-06    -49.4401E-06    -49.5569E-06    -49.4747E-06    -49.5223E-06     99.9968E-06     19.4018E-09     67.4941E-09    -500.032E-12     999.969E-03     999.922E-03     999.922E-03     343.207E-06    -437.848E-06         1.00036    -333.276E-03     999.969E-03     112.098E-06    -206.480E-06     999.921E-03     64.8890E-06     225.733E-06    -1.67235E-06
              94              0.              0.              0.              0.              0.              0.              0.              0.     956.741E-06    -123.714E-06     24.6911E-06     948.387E-06     99.9969E-06     99.9969E-06    -49.4401E-06    -49.5569E-06    -49.4747E-06    -49.5223E-06     99.9968E-06    -19.4018E-09     67.4941E-09     500.032E-12     99.9969E-06     99.9969E-06    -49.4401E-06    -49.5569E-06    -49.4747E-06    -49.5223E-06     99.9968E-06    -19.4018E-09     67.4941E-09     500.032E-12     999.969E-03     999.922E-03     999.922E-03     343.207E-06    -437.848E-06         1.00036    -333.276E-03     999.969E-03     112.098E-06    -206.480E-06     999.921E-03    -64.8890E-06     225.733E-06     1.67235E-06
              95              0.              0.              0.              0.              0.              0.              0.              0.     959.257E-06    -123.734E-06     74.3003E-06     948.337E-06     99.9925E-06     99.9925E-06    -49.4262E-06    -49.5663E-06    -49.4940E-06    -49.4984E-06     99.9924E-06     9.25432E-09     50.4076E-09    -5.88194E-09     99.9925E-06     99.9925E-06    -49.4262E-06    -49.5663E-06    -49.4940E-06    -49.4984E-06     99.9924E-06     9.25432E-09     50.4076E-09    -5.88194E-09     999.925E-03     999.942E-03     999.942E-03     485.544E-06    -451.213E-06         1.00039    -333.325E-03     999.924E-03     32.0154E-06     2.60809E-06     999.941E-03     30.9509E-06     168.587E-06    -19.6720E-06
              96              0.              0.              0.              0.              0.              0.              0.              0.     964.452E-06    -123.650E-06     123.650E-06     948.467E-06     99.9549E-06     99.9549E-06    -49.3936E-06    -49.5619E-06    -49.4776E-06    -49.4776E-06     99.9547E-06    -168.478E-09     179.818E-09    -179.818E-09     99.9549E-06     99.9549E-06    -49.3936E-06    -49.5619E-06    -49.4776E-06    -49.4776E-06     99.9547E-06    -168.478E-09     179.818E-09    -179.818E-09     999.550E-03     999.504E-03     999.504E-03     517.283E-06    -607.991E-06         1.00011    -333.138E-03     999.549E-03    -44.5204E-06    -44.5204E-06     999.502E-03    -563.470E-06     601.396E-06    -601.396E-06
              97              0.              0.              0.              0.              0.              0.              0.              0.     866.007E-06    -123.906E-06    -123.906E-06     848.094E-06     100.123E-06     100.123E-06    -49.4234E-06    -49.6985E-06    -49.5606E-06    -49.5606E-06     100.123E-06    -274.343E-09    -306.904E-09    -306.904E-09     100.123E-06     100.123E-06    -49.4234E-06    -49.6985E-06    -49.5606E-06    -49.5606E-06     100.123E-06    -274.343E-09    -306.904E-09    -306.904E-09         1.00123         1.00131         1.00131     996.933E-06    -842.786E-06         1.00215    -333.821E-03         1.00123     79.3994E-06     79.3994E-06         1.00131    -917.534E-06    -1.02644E-03    -1.02644E-03
              98              0.              0.              0.              0.              0.              0.              0.              0.     860.501E-06    -123.768E-06    -74.1444E-06     848.319E-06     100.036E-06     100.036E-06    -49.3985E-06    -49.6374E-06    -49.5308E-06    -49.5049E-06     100.036E-06     5.69717E-09    -118.639E-09    -45.9538E-09     100.036E-06     100.036E-06    -49.3985E-06    -49.6374E-06    -49.5308E-06    -49.5049E-06     100.036E-06     5.69717E-09    -118.639E-09    -45.9538E-09         1.00036         1.00040         1.00040     831.667E-06    -766.046E-06         1.00116    -333.487E-03         1.00036    -53.3264E-06     119.808E-06         1.00040     19.0541E-06    -396.787E-06    -153.692E-06
              99              0.              0.              0.              0.              0.              0.              0.              0.     857.615E-06    -123.794E-06    -24.8321E-06     848.269E-06     99.9992E-06     99.9992E-06    -49.4084E-06    -49.5902E-06    -49.5556E-06    -49.4429E-06     99.9991E-06    -26.4554E-09    -147.097E-09    -22.1180E-09     99.9992E-06     99.9992E-06    -49.4084E-06    -49.5902E-06    -49.5556E-06    -49.4429E-06     99.9991E-06    -26.4554E-09    -147.097E-09    -22.1180E-09     999.991E-03         1.00020         1.00020     814.695E-06    -401.544E-06         1.00060    -333.537E-03     999.988E-03    -169.881E-06     583.851E-06         1.00020    -88.4794E-06    -491.962E-06    -73.9732E-06
             100              0.              0.              0.              0.              0.              0.              0.              0.     857.615E-06    -123.794E-06     24.8321E-06     848.269E-06     99.9992E-06     99.9992E-06    -49.4084E-06    -49.5902E-06    -49.5556E-06    -49.4429E-06     99.9991E-06     26.4554E-09    -147.097E-09     22.1180E-09     99.9992E-06     99.9992E-06    -49.4084E-06    -49.5902E-06    -49.5556E-06    -49.4429E-06     99.9991E-06     26.4554E-09    -147.097E-09     22.1180E-09     999.991E-03         1.00020         1.00020     814.695E-06    -401.544E-06         1.00060    -333.537E-03     999.988E-03    -169.881E-06     583.851E-06         1.00020     88.4794E-06    -491.962E-06     73.9732E-06
             101              0.              0.              0.              0.              0.              0.              0.              0.     860.501E-06    -123.768E-06     74.1444E-06     848.319E-06     100.036E-06     100.036E-06    -49.3985E-06    -49.6374E-06    -49.5308E-06    -49.5049E-06     100.036E-06    -5.69717E-09    -118.639E-09     45.9538E-09     100.036E-06     100.036E-06    -49.3985E-06    -49.6374E-06    -49.5308E-06    -49.5049E-06     100.036E-06    -5.69717E-09    -118.639E-09     45.9538E-09         1.00036         1.00040         1.00040     831.667E-06    -766.046E-06         1.00116    -333.487E-03         1.00036    -53.3264E-06     119.808E-06         1.00040    -19.0541E-06    -396.787E-06     153.692E-06
             102              0.              0.              0.              0.              0.              0.              0.              0.     866.007E-06    -123.906E-06     123.906E-06     848.094E-06     100.123E-06     100.123E-06    -49.4234E-06    -49.6985E-06    -49.5606E-06    -49.5606E-06     100.123E-06     274.343E-09    -306.904E-09     306.904E-09     100.123E-06     100.123E-06    -49.4234E-06    -49.6985E-06    -49.5606E-06    -49.5606E-06     100.123E-06     274.343E-09    -306.904E-09     306.904E-09         1.00123         1.00131         1.00131     996.933E-06    -842.786E-06         1.00215    -333.821E-03         1.00123     79.3994E-06     79.3994E-06         1.00131     917.534E-06    -1.02644E-03     1.02644E-03
             103              0.              0.              0.              0.              0.              0.              0.              0.     768.723E-06    -123.487E-06    -123.487E-06     748.623E-06     99.9139E-06     99.9139E-06    -49.2484E-06    -49.6670E-06    -49.4567E-06    -49.4567E-06     99.9119E-06     420.593E-09     474.699E-09     474.699E-09     99.9139E-06     99.9139E-06    -49.2484E-06    -49.6670E-06    -49.4567E-06    -49.4567E-06     99.9119E-06     420.593E-09     474.699E-09     474.699E-09     999.144E-03     998.919E-03     998.919E-03     1.17788E-03    -1.62243E-03         1.00054    -332.825E-03     999.135E-03    -215.765E-06    -215.765E-06     998.906E-03     1.40667E-03     1.58762E-03     1.58762E-03
             104              0.              0.              0.              0.              0.              0.              0.              0.     762.122E-06    -123.697E-06    -74.3840E-06     748.328E-06     99.9941E-06     99.9941E-06    -49.3125E-06    -49.6817E-06    -49.4757E-06    -49.5182E-06     99.9938E-06    -18.4171E-09     205.118E-09     16.8076E-09     99.9941E-06     99.9941E-06    -49.3125E-06    -49.6817E-06    -49.4757E-06    -49.5182E-06     99.9938E-06    -18.4171E-09     205.118E-09     16.8076E-09     999.944E-03     999.929E-03     999.929E-03     1.22271E-03    -1.24701E-03         1.00118    -333.302E-03     999.937E-03     130.833E-06    -152.924E-06     999.927E-03    -61.5958E-06     686.014E-06     56.2128E-06
             105              0.              0.              0.              0.              0.              0.              0.              0.     759.020E-06    -123.629E-06    -24.5972E-06     748.480E-06     100.015E-06     100.015E-06    -49.3575E-06    -49.6583E-06    -49.4320E-06    -49.5834E-06     100.015E-06     17.1844E-09     207.959E-09     3.75640E-09     100.015E-06     100.015E-06    -49.3575E-06    -49.6583E-06    -49.4320E-06    -49.5834E-06     100.015E-06     17.1844E-09     207.959E-09     3.75640E-09         1.00016     999.899E-03     999.899E-03     751.752E-06    -1.26033E-03         1.00116    -333.130E-03         1.00015     253.360E-06    -759.690E-06     999.897E-03     57.4728E-06     695.516E-06     12.5632E-06
             106              0.              0.              0.              0.              0.              0.              0.              0.     759.020E-06    -123.629E-06     24.5972E-06     748.480E-06     100.015E-06     100.015E-06    -49.3575E-06    -49.6583E-06    -49.4320E-06    -49.5834E-06     100.015E-06    -17.1844E-09     207.959E-09    -3.75640E-09     100.015E-06     100.015E-06    -49.3575E-06    -49.6583E-06    -49.4320E-06    -49.5834E-06     100.015E-06    -17.1844E-09     207.959E-09    -3.75640E-09         1.00016     999.899E-03     999.899E-03     751.752E-06    -1.26033E-03         1.00116    -333.130E-03         1.00015     253.360E-06    -759.690E-06     999.897E-03    -57.4728E-06     695.516E-06    -12.5632E-06
             107              0.              0.              0.              0.              0.              0.              0.              0.     762.122E-06    -123.697E-06     74.3840E-06     748.328E-06     99.9941E-06     99.9941E-06    -49.3125E-06    -49.6817E-06    -49.4757E-06    -49.5182E-06     99.9938E-06     18.4171E-09     205.118E-09    -16.8076E-09     99.9941E-06     99.9941E-06    -49.3125E-06    -49.6817E-06    -49.4757E-06    -49.5182E-06     99.9938E-06     18.4171E-09     205.118E-09    -16.8076E-09     999.944E-03     999.929E-03     999.929E-03     1.22271E-03    -1.24701E-03         1.00118    -333.302E-03     999.937E-03     130.833E-06    -152.924E-06     999.927E-03     61.5958E-06     686.014E-06    -56.2128E-06
             108              0.              0.              0.              0.              0.              0.              0.              0.     768.723E-06    -123.487E-06     123.487E-06     748.623E-06     99.9139E-06     99.9139E-06    -49.2484E-06    -49.6670E-06    -49.4567E-06    -49.4567E-06     99.9119E-06    -420.593E-09     474.699E-09    -474.699E-09     99.9139E-06     99.9139E-06    -49.2484E-06    -49.6670E-06    -49.4567E-06    -49.4567E-06     99.9119E-06    -420.593E-09     474.699E-09    -474.699E-09     999.144E-03     998.919E-03     998.919E-03     1.17788E-03    -1.62243E-03         1.00054    -332.825E-03     999.135E-03    -215.765E-06    -215.765E-06     998.906E-03    -1.40667E-03     1.58762E-03    -1.58762E-03
             109              0.              0.              0.              0.              0.              0.              0.              0.     670.985E-06    -124.265E-06    -124.265E-06     647.562E-06     100.329E-06     100.329E-06    -49.2946E-06    -50.0307E-06    -49.6603E-06    -49.6603E-06     100.324E-06    -731.415E-09    -758.665E-09    -758.665E-09     100.329E-06     100.329E-06    -49.2946E-06    -50.0307E-06    -49.6603E-06    -49.6603E-06     100.324E-06    -731.415E-09    -758.665E-09    -758.665E-09         1.00330         1.00345         1.00345     2.61839E-03    -2.30570E-03         1.00575    -334.586E-03         1.00327     172.182E-06     172.182E-06         1.00341    -2.44620E-03    -2.53734E-03    -2.53734E-03
             110              0.              0.              0.              0.              0.              0.              0.              0.     664.060E-06    -123.900E-06    -74.0345E-06     648.185E-06     100.111E-06     100.111E-06    -49.2398E-06    -49.8705E-06    -49.6090E-06    -49.5001E-06     100.110E-06    -51.4301E-09    -401.795E-09     2.42841E-09     100.111E-06     100.111E-06    -49.2398E-06    -49.8705E-06    -49.6090E-06    -49.5001E-06     100.110E-06    -51.4301E-09    -401.795E-09     2.42841E-09         1.00112         1.00103         1.00103     2.02507E-03    -2.19322E-03         1.00322    -333.620E-03         1.00110    -444.528E-06     284.123E-06         1.00102    -172.007E-06    -1.34380E-03     8.12182E-06
             111              0.              0.              0.              0.              0.              0.              0.              0.     660.270E-06    -123.924E-06    -24.9909E-06     648.054E-06     100.081E-06     100.081E-06    -49.3028E-06    -49.7771E-06    -49.6943E-06    -49.3847E-06     100.080E-06    -43.9733E-09    -438.814E-09     15.8383E-09     100.081E-06     100.081E-06    -49.3028E-06    -49.7771E-06    -49.6943E-06    -49.3847E-06     100.080E-06    -43.9733E-09    -438.814E-09     15.8383E-09         1.00081         1.00092         1.00092     1.69940E-03    -1.47366E-03         1.00240    -333.716E-03         1.00080    -919.737E-06     1.15112E-03         1.00092    -147.068E-06    -1.46760E-03     52.9708E-06
             112              0.              0.              0.              0.              0.              0.              0.              0.     660.270E-06    -123.924E-06     24.9909E-06     648.054E-06     100.081E-06     100.081E-06    -49.3028E-06    -49.7771E-06    -49.6943E-06    -49.3847E-06     100.080E-06     43.9733E-09    -438.814E-09    -15.8383E-09     100.081E-06     100.081E-06    -49.3028E-06    -49.7771E-06    -49.6943E-06    -49.3847E-06     100.080E-06     43.9733E-09    -438.814E-09    -15.8383E-09         1.00081         1.00092         1.00092     1.69940E-03    -1.47366E-03         1.00240    -333.716E-03         1.00080    -919.737E-06     1.15112E-03         1.00092     147.068E-06    -1.46760E-03    -52.9708E-06
             113              0.              0.              0.              0.              0.              0.              0.              0.     664.060E-06    -123.900E-06     74.0345E-06     648.185E-06     100.111E-06     100.111E-06    -49.2398E-06    -49.8705E-06    -49.6090E-06    -49.5001E-06     100.110E-06     51.4301E-09    -401.795E-09    -2.42841E-09     100.111E-06     100.111E-06    -49.2398E-06    -49.8705E-06    -49.6090E-06    -49.5001E-06     100.110E-06     51.4301E-09    -401.795E-09    -2.42841E-09         1.00112         1.00103         1.00103     2.02507E-03    -2.19322E-03         1.00322    -333.620E-03         1.00110    -444.528E-06     284.123E-06         1.00102     172.007E-06    -1.34380E-03    -8.12182E-06
             114              0.              0.              0.              0.              0.              0.              0.              0.     670.985E-06    -124.265E-06     124.265E-06     647.562E-06     100.329E-06     100.329E-06    -49.2946E-06    -50.0307E-06    -49.6603E-06    -49.6603E-06     100.324E-06     731.415E-09    -758.665E-09     758.665E-09     100.329E-06     100.329E-06    -49.2946E-06    -50.0307E-06    -49.6603E-06    -49.6603E-06     100.324E-06     731.415E-09    -758.665E-09     758.665E-09         1.00330         1.00345         1.00345     2.61839E-03    -2.30570E-03         1.00575    -334.586E-03         1.00327     172.182E-06     172.182E-06         1.00341     2.44620E-03    -2.53734E-03     2.53734E-03
             115              0.              0.              0.              0.              0.              0.              0.              0.     576.100E-06    -123.215E-06    -123.215E-06     549.116E-06     99.4534E-06     99.4534E-06    -48.7159E-06    -49.7460E-06    -49.2223E-06    -49.2223E-06     99.4360E-06     1.04750E-06     1.44634E-06     1.44634E-06     99.4534E-06     99.4534E-06    -48.7159E-06    -49.7460E-06    -49.2223E-06    -49.2223E-06     99.4360E-06     1.04750E-06     1.44634E-06     1.44634E-06     994.562E-03     993.512E-03     993.512E-03     2.41338E-03    -4.47731E-03     997.989E-03    -330.483E-03     994.508E-03    -973.964E-06    -973.964E-06     993.396E-03     3.50335E-03     4.83725E-03     4.83725E-03
             116              0.              0.              0.              0.              0.              0.              0.              0.     567.135E-06    -123.738E-06    -74.8806E-06     548.383E-06     99.8385E-06     99.8385E-06    -48.8785E-06    -49.9644E-06    -49.2642E-06    -49.5751E-06     99.8349E-06    -20.0456E-09     952.004E-09     478.982E-09     99.8385E-06     99.8385E-06    -48.8785E-06    -49.9644E-06    -49.2642E-06    -49.5751E-06     99.8349E-06    -20.0456E-09     952.004E-09     478.982E-09     998.415E-03     997.457E-03     997.457E-03     2.69495E-03    -4.56872E-03         1.00203    -331.861E-03     998.351E-03     114.929E-06    -1.96486E-03     997.433E-03    -67.0421E-06     3.18396E-03     1.60195E-03
             117              0.              0.              0.              0.              0.              0.              0.              0.     562.850E-06    -123.554E-06    -24.4981E-06     548.575E-06     100.245E-06     100.245E-06    -49.2422E-06    -50.0076E-06    -49.2445E-06    -50.0014E-06     100.241E-06    -47.5316E-09     900.727E-09     285.045E-09     100.245E-06     100.245E-06    -49.2422E-06    -50.0076E-06    -49.2445E-06    -50.0014E-06     100.241E-06    -47.5316E-09     900.727E-09     285.045E-09         1.00249     999.889E-03     999.889E-03    -22.4145E-06    -5.14226E-03         1.00503    -331.575E-03         1.00244    -37.5116E-06    -5.10034E-03     999.862E-03    -158.968E-06     3.01247E-03     953.327E-06
             118              0.              0.              0.              0.              0.              0.              0.              0.     562.850E-06    -123.554E-06     24.4981E-06     548.575E-06     100.245E-06     100.245E-06    -49.2422E-06    -50.0076E-06    -49.2445E-06    -50.0014E-06     100.241E-06     47.5316E-09     900.727E-09    -285.045E-09     100.245E-06     100.245E-06    -49.2422E-06    -50.0076E-06    -49.2445E-06    -50.0014E-06     100.241E-06     47.5316E-09     900.727E-09    -285.045E-09         1.00249     999.889E-03     999.889E-03    -22.4145E-06    -5.14226E-03         1.00503    -331.575E-03         1.00244    -37.5116E-06    -5.10034E-03     999.862E-03     158.968E-06     3.01247E-03    -953.327E-06
             119              0.              0.              0.              0.              0.              0.              0.              0.     567.135E-06    -123.738E-06     74.8806E-06     548.383E-06     99.8385E-06     99.8385E-06    -48.8785E-06    -49.9644E-06    -49.2642E-06    -49.5751E-06     99.8349E-06     20.0456E-09     952.004E-09    -478.982E-09     99.8385E-06     99.8385E-06    -48.8785E-06    -49.9644E-06    -49.2642E-06    -49.5751E-06     99.8349E-06     20.0456E-09     952.004E-09    -478.982E-09     998.415E-03     997.457E-03     997.457E-03     2.69495E-03    -4.56872E-03         1.00203    -331.861E-03     998.351E-03     114.929E-06    -1.96486E-03     997.433E-03     67.0421E-06     3.18396E-03    -1.60195E-03
             120              0.              0.              0.              0.              0.              0.              0.              0.     576.100E-06    -123.215E-06     123.215E-06     549.116E-06     99.4534E-06     99.4534E-06    -48.7159E-06    -49.7460E-06    -49.2223E-06    -49.2223E-06     99.4360E-06    -1.04750E-06     1.44634E-06    -1.44634E-06     99.4534E-06     99.4534E-06    -48.7159E-06    -49.7460E-06    -49.2223E-06    -49.2223E-06     99.4360E-06    -1.04750E-06     1.44634E-06    -1.44634E-06     994.562E-03     993.512E-03     993.512E-03     2.41338E-03    -4.47731E-03     997.989E-03    -330.483E-03     994.508E-03    -973.964E-06    -973.964E-06     993.396E-03    -3.50335E-03     4.83725E-03    -4.83725E-03
             121              0.              0.              0.              0.              0.              0.              0.              0.     480.967E-06    -125.692E-06    -125.692E-06     446.914E-06     99.6495E-06     99.6495E-06    -48.4052E-06    -50.2460E-06    -49.3083E-06    -49.3083E-06     99.6149E-06    -1.80623E-06    -1.49743E-06    -1.49743E-06     99.6495E-06     99.6495E-06    -48.4052E-06    -50.2460E-06    -49.3083E-06    -49.3083E-06     99.6149E-06    -1.80623E-06    -1.49743E-06    -1.49743E-06     996.547E-03     997.099E-03     997.099E-03     6.76649E-03    -5.54704E-03         1.00265    -332.773E-03     996.375E-03     725.579E-06     725.579E-06     996.867E-03    -6.04091E-03    -5.00812E-03    -5.00812E-03
             122              0.              0.              0.              0.              0.              0.              0.              0.     471.055E-06    -124.789E-06    -74.4518E-06     448.082E-06     99.7571E-06     99.7571E-06    -48.6861E-06    -50.0793E-06    -49.4742E-06    -49.2781E-06     99.7441E-06    -216.472E-09    -973.573E-09     1.29110E-06     99.7571E-06     99.7571E-06    -48.6861E-06    -50.0793E-06    -49.4742E-06    -49.2781E-06     99.7441E-06    -216.472E-09    -973.573E-09     1.29110E-06     997.623E-03     995.656E-03     995.656E-03     2.72515E-03    -6.59372E-03         1.00225    -330.596E-03     997.525E-03    -2.54633E-03    -1.23495E-03     995.569E-03    -723.988E-06    -3.25610E-03     4.31805E-03
             123              0.              0.              0.              0.              0.              0.              0.              0.     464.791E-06    -124.915E-06    -25.7535E-06     446.949E-06     100.529E-06     100.529E-06    -49.0648E-06    -50.4694E-06    -49.8675E-06    -49.6615E-06     100.523E-06     39.5885E-09    -656.268E-09     824.613E-09     100.529E-06     100.529E-06    -49.0648E-06    -50.4694E-06    -49.8675E-06    -49.6615E-06     100.523E-06     39.5885E-09    -656.268E-09     824.613E-09         1.00536         1.00167         1.00167     1.04058E-03    -8.35453E-03         1.01002    -331.450E-03         1.00525    -4.32822E-03    -2.95063E-03         1.00163     132.403E-06    -2.19488E-03     2.75790E-03
             124              0.              0.              0.              0.              0.              0.              0.              0.     464.791E-06    -124.915E-06     25.7535E-06     446.949E-06     100.529E-06     100.529E-06    -49.0648E-06    -50.4694E-06    -49.8675E-06    -49.6615E-06     100.523E-06    -39.5885E-09    -656.268E-09    -824.613E-09     100.529E-06     100.529E-06    -49.0648E-06    -50.4694E-06    -49.8675E-06    -49.6615E-06     100.523E-06    -39.5885E-09    -656.268E-09    -824.613E-09         1.00536         1.00167         1.00167     1.04058E-03    -8.35453E-03         1.01002    -331.450E-03         1.00525    -4.32822E-03    -2.95063E-03         1.00163    -132.403E-06    -2.19488E-03    -2.75790E-03
             125              0.              0.              0.              0.              0.              0.              0.              0.     471.055E-06    -124.789E-06     74.4518E-06     448.082E-06     99.7571E-06     99.7571E-06    -48.6861E-06    -50.0793E-06    -49.4742E-06    -49.2781E-06     99.7441E-06     216.472E-09    -973.573E-09    -1.29110E-06     99.7571E-06     99.7571E-06    -48.6861E-06    -50.0793E-06    -49.4742E-06    -49.2781E-06     99.7441E-06     216.472E-09    -973.573E-09    -1.29110E-06     997.623E-03     995.656E-03     995.656E-03     2.72515E-03    -6.59372E-03         1.00225    -330.596E-03     997.525E-03    -2.54633E-03    -1.23495E-03     995.569E-03     723.988E-06    -3.25610E-03    -4.31805E-03
             126              0.              0.              0.              0.              0.              0.              0.              0.     480.967E-06    -125.692E-06     125.692E-06     446.914E-06     99.6495E-06     99.6495E-06    -48.4052E-06    -50.2460E-06    -49.3083E-06    -49.3083E-06     99.6149E-06     1.80623E-06    -1.49743E-06     1.49743E-06     99.6495E-06     99.6495E-06    -48.4052E-06    -50.2460E-06    -49.3083E-06    -49.3083E-06     99.6149E-06     1.80623E-06    -1.49743E-06     1.49743E-06     996.547E-03     997.099E-03     997.099E-03     6.76649E-03    -5.54704E-03         1.00265    -332.773E-03     996.375E-03     725.579E-06     725.579E-06     996.867E-03     6.04091E-03    -5.00812E-03     5.00812E-03
             127              0.              0.              0.              0.              0.              0.              0.              0.     393.926E-06    -122.555E-06    -122.555E-06     353.749E-06     94.8973E-06     94.8973E-06    -45.5020E-06    -48.4554E-06    -46.9014E-06    -46.9014E-06     94.7427E-06     3.10798E-06     4.88047E-06     4.88047E-06     94.8973E-06     94.8973E-06    -45.5020E-06    -48.4554E-06    -46.9014E-06    -46.9014E-06     94.7427E-06     3.10798E-06     4.88047E-06     4.88047E-06     949.158E-03     945.980E-03     945.980E-03     6.85419E-03    -12.9008E-03     958.881E-03    -313.311E-03     948.693E-03    -2.50618E-03    -2.50618E-03     944.946E-03     10.3946E-03     16.3227E-03     16.3227E-03
             128              0.              0.              0.              0.              0.              0.              0.              0.     379.608E-06    -124.109E-06    -77.4980E-06     350.276E-06     97.7504E-06     97.7504E-06    -46.4573E-06    -50.3353E-06    -47.4371E-06    -49.2857E-06     97.6806E-06     698.686E-09     4.37036E-06     3.51588E-06     97.7504E-06     97.7504E-06    -46.4573E-06    -50.3353E-06    -47.4371E-06    -49.2857E-06     97.6806E-06     698.686E-09     4.37036E-06     3.51588E-06     977.873E-03     970.983E-03     970.983E-03     6.38220E-03    -19.5572E-03     990.540E-03    -319.269E-03     976.964E-03    -171.460E-06    -12.5365E-03     970.516E-03     2.33674E-03     14.6166E-03     11.7588E-03
             129              0.              0.              0.              0.              0.              0.              0.              0.     370.856E-06    -124.573E-06    -25.0149E-06     348.411E-06     100.625E-06     100.625E-06    -47.7448E-06    -51.9150E-06    -47.6996E-06    -51.8978E-06     100.562E-06     55.1309E-09     4.75960E-06     2.07147E-06     100.625E-06     100.625E-06    -47.7448E-06    -51.9150E-06    -47.6996E-06    -51.8978E-06     100.562E-06     55.1309E-09     4.75960E-06     2.07147E-06         1.00670     992.514E-03     992.514E-03     76.7274E-06    -27.8174E-03         1.02033    -321.591E-03         1.00575     378.874E-06    -27.7026E-03     992.097E-03     184.384E-06     15.9184E-03     6.92800E-03
             130              0.              0.              0.              0.              0.              0.              0.              0.     370.856E-06    -124.573E-06     25.0149E-06     348.411E-06     100.625E-06     100.625E-06    -47.7448E-06    -51.9150E-06    -47.6996E-06    -51.8978E-06     100.562E-06    -55.1309E-09     4.75960E-06    -2.07147E-06     100.625E-06     100.625E-06    -47.7448E-06    -51.9150E-06    -47.6996E-06    -51.8978E-06     100.562E-06    -55.1309E-09     4.75960E-06    -2.07147E-06         1.00670     992.514E-03     992.514E-03     76.7274E-06    -27.8174E-03         1.02033    -321.591E-03         1.00575     378.874E-06    -27.7026E-03     992.097E-03    -184.384E-06     15.9184E-03    -6.92800E-03
             131              0.              0.              0.              0.              0.              0.              0.              0.     379.608E-06    -124.109E-06     77.4980E-06     350.276E-06     97.7504E-06     97.7504E-06    -46.4573E-06    -50.3353E-06    -47.4371E-06    -49.2857E-06     97.6806E-06    -698.686E-09     4.37036E-06    -3.51588E-06     97.7504E-06     97.7504E-06    -46.4573E-06    -50.3353E-06    -47.4371E-06    -49.2857E-06     97.6806E-06    -698.686E-09     4.37036E-06    -3.51588E-06     977.873E-03     970.983E-03     970.983E-03     6.38220E-03    -19.5572E-03     990.540E-03    -319.269E-03     976.964E-03    -171.460E-06    -12.5365E-03     970.516E-03    -2.33674E-03     14.6166E-03    -11.7588E-03
             132              0.              0.              0.              0.              0.              0.              0.              0.     393.926E-06    -122.555E-06     122.555E-06     353.749E-06     94.8973E-06     94.8973E-06    -45.5020E-06    -48.4554E-06    -46.9014E-06    -46.9014E-06     94.7427E-06    -3.10798E-06     4.88047E-06    -4.88047E-06     94.8973E-06     94.8973E-06    -45.5020E-06    -48.4554E-06    -46.9014E-06    -46.9014E-06     94.7427E-06    -3.10798E-06     4.88047E-06    -4.88047E-06     949.158E-03     945.980E-03     945.980E-03     6.85419E-03    -12.9008E-03     958.881E-03    -313.311E-03     948.693E-03    -2.50618E-03    -2.50618E-03     944.946E-03    -10.3946E-03     16.3227E-03    -16.3227E-03
             133              0.              0.              0.              0.              0.              0.              0.              0.     312.109E-06    -128.507E-06    -128.507E-06     253.740E-06     92.8716E-06     92.8716E-06    -44.4066E-06    -47.5128E-06    -45.6851E-06    -45.6851E-06     92.3223E-06    -2.55685E-06    -3.48317E-06    -3.48317E-06     92.8716E-06     92.8716E-06    -44.4066E-06    -47.5128E-06    -45.6851E-06    -45.6851E-06     92.3223E-06    -2.55685E-06    -3.48317E-06    -3.48317E-06     928.820E-03     936.491E-03     936.491E-03     18.2422E-03    -2.53489E-03     939.026E-03    -317.400E-03     928.274E-03     9.69091E-03     9.69091E-03     932.817E-03    -8.55132E-03    -11.6494E-03    -11.6494E-03
             134              0.              0.              0.              0.              0.              0.              0.              0.     292.117E-06    -127.229E-06    -76.1449E-06     251.689E-06     95.9658E-06     95.9658E-06    -46.1501E-06    -48.8662E-06    -47.6656E-06    -47.1727E-06     95.7878E-06     757.992E-09    -3.02488E-06     5.38974E-06     95.9658E-06     95.9658E-06    -46.1501E-06    -48.8662E-06    -47.6656E-06    -47.1727E-06     95.7878E-06     757.992E-09    -3.02488E-06     5.38974E-06     959.839E-03     956.281E-03     956.281E-03     5.67271E-03    -12.4952E-03     968.776E-03    -316.486E-03     959.399E-03    -4.46456E-03    -1.16746E-03     955.090E-03     2.53509E-03    -10.1167E-03     18.0259E-03
             135              0.              0.              0.              0.              0.              0.              0.              0.     278.046E-06    -129.318E-06    -28.0306E-06     244.542E-06     99.3212E-06     99.3212E-06    -46.9995E-06    -51.3525E-06    -48.4841E-06    -49.7686E-06     99.2220E-06     1.27174E-06     315.418E-09     3.36594E-06     99.3212E-06     99.3212E-06    -46.9995E-06    -51.3525E-06    -48.4841E-06    -49.7686E-06     99.2220E-06     1.27174E-06     315.418E-09     3.36594E-06     993.625E-03     985.282E-03     985.282E-03     6.54857E-03    -22.5687E-03         1.00785    -323.087E-03     992.626E-03    -3.38235E-03    -11.9738E-03     984.618E-03     4.25331E-03     1.05491E-03     11.2573E-03
             136              0.              0.              0.              0.              0.              0.              0.              0.     278.046E-06    -129.318E-06     28.0306E-06     244.542E-06     99.3212E-06     99.3212E-06    -46.9995E-06    -51.3525E-06    -48.4841E-06    -49.7686E-06     99.2220E-06    -1.27174E-06     315.418E-09    -3.36594E-06     99.3212E-06     99.3212E-06    -46.9995E-06    -51.3525E-06    -48.4841E-06    -49.7686E-06     99.2220E-06    -1.27174E-06     315.418E-09    -3.36594E-06     993.625E-03     985.282E-03     985.282E-03     6.54857E-03    -22.5687E-03         1.00785    -323.087E-03     992.626E-03    -3.38235E-03    -11.9738E-03     984.618E-03    -4.25331E-03     1.05491E-03    -11.2573E-03
             137              0.              0.              0.              0.              0.              0.              0.              0.     292.117E-06    -127.229E-06     76.1449E-06     251.689E-06     95.9658E-06     95.9658E-06    -46.1501E-06    -48.8662E-06    -47.6656E-06    -47.1727E-06     95.7878E-06    -757.992E-09    -3.02488E-06    -5.38974E-06     95.9658E-06     95.9658E-06    -46.1501E-06    -48.8662E-06    -47.6656E-06    -47.1727E-06     95.7878E-06    -757.992E-09    -3.02488E-06    -5.38974E-06     959.839E-03     956.281E-03     956.281E-03     5.67271E-03    -12.4952E-03     968.776E-03    -316.486E-03     959.399E-03    -4.46456E-03    -1.16746E-03     955.090E-03    -2.53509E-03    -10.1167E-03    -18.0259E-03
             138              0.              0.              0.              0.              0.              0.              0.              0.     312.109E-06    -128.507E-06     128.507E-06     253.740E-06     92.8716E-06     92.8716E-06    -44.4066E-06    -47.5128E-06    -45.6851E-06    -45.6851E-06     92.3223E-06     2.55685E-06    -3.48317E-06     3.48317E-06     92.8716E-06     92.8716E-06    -44.4066E-06    -47.5128E-06    -45.6851E-06    -45.6851E-06     92.3223E-06     2.55685E-06    -3.48317E-06     3.48317E-06     928.820E-03     936.491E-03     936.491E-03     18.2422E-03    -2.53489E-03     939.026E-03    -317.400E-03     928.274E-03     9.69091E-03     9.69091E-03     932.817E-03     8.55132E-03    -11.6494E-03     11.6494E-03
             139              0.              0.              0.              0.              0.              0.              0.              0.     241.143E-06    -111.487E-06    -111.487E-06     182.459E-06     77.1312E-06     77.1312E-06    -33.9065E-06    -42.4508E-06    -37.7176E-06    -37.7176E-06     76.2090E-06     9.46654E-06     10.8734E-06     10.8734E-06     77.1312E-06     77.1312E-06    -33.9065E-06    -42.4508E-06    -37.7176E-06    -37.7176E-06     76.2090E-06     9.46654E-06     10.8734E-06     10.8734E-06     772.959E-03     772.174E-03     772.174E-03     29.4467E-03    -27.7062E-03     799.880E-03    -257.971E-03     767.971E-03     3.95446E-03     3.95446E-03     766.005E-03     31.6607E-03     36.3659E-03     36.3659E-03
             140              0.              0.              0.              0.              0.              0.              0.              0.     216.634E-06    -116.220E-06    -79.0796E-06     164.832E-06     89.7273E-06     89.7273E-06    -37.8197E-06    -51.0472E-06    -40.6521E-06    -47.3903E-06     88.9028E-06     6.75306E-06     12.9398E-06     1.99279E-06     89.7273E-06     89.7273E-06    -37.8197E-06    -51.0472E-06    -40.6521E-06    -47.3903E-06     88.9028E-06     6.75306E-06     12.9398E-06     1.99279E-06     901.345E-03     885.073E-03     885.073E-03     31.9156E-03    -56.5624E-03     941.635E-03    -286.809E-03     889.359E-03     12.9701E-03    -32.1018E-03     879.558E-03     22.5855E-03     43.2769E-03     6.66485E-03
             141              0.              0.              0.              0.              0.              0.              0.              0.     199.786E-06    -124.122E-06    -24.5998E-06     154.605E-06     91.4259E-06     91.4259E-06    -38.8842E-06    -51.6078E-06    -38.8649E-06    -51.1551E-06     90.9538E-06     3.23338E-06     14.5747E-06    -567.528E-09     91.4259E-06     91.4259E-06    -38.8842E-06    -51.6078E-06    -38.8649E-06    -51.1551E-06     90.9538E-06     3.23338E-06     14.5747E-06    -567.528E-09     917.356E-03     920.755E-03     920.755E-03     49.1161E-03    -35.9912E-03     956.747E-03    -311.293E-03     907.798E-03     49.2456E-03    -32.9633E-03     917.598E-03     10.8140E-03     48.7447E-03    -1.89809E-03
             142              0.              0.              0.              0.              0.              0.              0.              0.     199.786E-06    -124.122E-06     24.5998E-06     154.605E-06     91.4259E-06     91.4259E-06    -38.8842E-06    -51.6078E-06    -38.8649E-06    -51.1551E-06     90.9538E-06    -3.23338E-06     14.5747E-06     567.528E-09     91.4259E-06     91.4259E-06    -38.8842E-06    -51.6078E-06    -38.8649E-06    -51.1551E-06     90.9538E-06    -3.23338E-06     14.5747E-06     567.528E-09     917.356E-03     920.755E-03     920.755E-03     49.1161E-03    -35.9912E-03     956.747E-03    -311.293E-03     907.798E-03     49.2456E-03    -32.9633E-03     917.598E-03    -10.8140E-03     48.7447E-03     1.89809E-03
             143              0.              0.              0.              0.              0.              0.              0.              0.     216.634E-06    -116.220E-06     79.0796E-06     164.832E-06     89.7273E-06     89.7273E-06    -37.8197E-06    -51.0472E-06    -40.6521E-06    -47.3903E-06     88.9028E-06    -6.75306E-06     12.9398E-06    -1.99279E-06     89.7273E-06     89.7273E-06    -37.8197E-06    -51.0472E-06    -40.6521E-06    -47.3903E-06     88.9028E-06    -6.75306E-06     12.9398E-06    -1.99279E-06     901.345E-03     885.073E-03     885.073E-03     31.9156E-03    -56.5624E-03     941.635E-03    -286.809E-03     889.359E-03     12.9701E-03    -32.1018E-03     879.558E-03    -22.5855E-03     43.2769E-03    -6.66485E-03
             144              0.              0.              0.              0.              0.              0.              0.              0.     241.143E-06    -111.487E-06     111.487E-06     182.459E-06     77.1312E-06     77.1312E-06    -33.9065E-06    -42.4508E-06    -37.7176E-06    -37.7176E-06     76.2090E-06    -9.46654E-06     10.8734E-06    -10.8734E-06     77.1312E-06     77.1312E-06    -33.9065E-06    -42.4508E-06    -37.7176E-06    -37.7176E-06     76.2090E-06    -9.46654E-06     10.8734E-06    -10.8734E-06     772.959E-03     772.174E-03     772.174E-03     29.4467E-03    -27.7062E-03     799.880E-03    -257.971E-03     767.971E-03     3.95446E-03     3.95446E-03     766.005E-03    -31.6607E-03     36.3659E-03    -36.3659E-03
             145              0.              0.              0.              0.              0.              0.              0.              0.     186.216E-06    -115.000E-06    -115.000E-06     90.7012E-06     116.073E-06     116.073E-06    -52.1645E-06    -62.5787E-06    -50.8743E-06    -50.8743E-06     103.078E-06     5.42485E-06    -31.0320E-06    -31.0320E-06     116.073E-06     116.073E-06    -52.1645E-06    -62.5787E-06    -50.8743E-06    -50.8743E-06     103.078E-06     5.42485E-06    -31.0320E-06    -31.0320E-06         1.16238         1.21663         1.21663     91.2928E-03     21.6326E-03         1.19499    -443.184E-03         1.15570     99.9234E-03     99.9234E-03         1.12970     18.1433E-03    -103.786E-03    -103.786E-03
             146              0.              0.              0.              0.              0.              0.              0.              0.     144.719E-06    -117.712E-06    -52.2767E-06     65.9898E-06     103.209E-06     103.209E-06    -39.4514E-06    -62.3625E-06    -53.8691E-06    -38.1586E-06     93.4226E-06     4.25267E-06    -33.3020E-06    -26.1910E-06     103.209E-06     103.209E-06    -39.4514E-06    -62.3625E-06    -53.8691E-06    -38.1586E-06     93.4226E-06     4.25267E-06    -33.3020E-06    -26.1910E-06         1.04266         1.15225         1.15225     197.995E-03     44.7433E-03         1.10750    -464.994E-03         1.00592     101.556E-03     206.643E-03         1.08678     14.2230E-03    -111.378E-03    -87.5955E-03
             147              0.              0.              0.              0.              0.              0.              0.              0.     139.114E-06    -122.386E-06    -16.6690E-06     64.0037E-06     94.2537E-06     94.2537E-06    -26.6193E-06    -66.1659E-06    -57.5103E-06    -26.3983E-06     85.3771E-06     2.03032E-06    -37.1433E-06    -11.3069E-06     94.2537E-06     94.2537E-06    -26.6193E-06    -66.1659E-06    -57.5103E-06    -26.3983E-06     85.3771E-06     2.03032E-06    -37.1433E-06    -11.3069E-06     969.310E-03         1.11668         1.11668     308.169E-03     43.6434E-03         1.07304    -489.499E-03     877.944E-03     101.541E-03     309.647E-03         1.05731     6.79036E-03    -124.225E-03    -37.8157E-03
             148              0.              0.              0.              0.              0.              0.              0.              0.     139.114E-06    -122.386E-06     16.6690E-06     64.0037E-06     94.2537E-06     94.2537E-06    -26.6193E-06    -66.1659E-06    -57.5103E-06    -26.3983E-06     85.3771E-06    -2.03032E-06    -37.1433E-06     11.3069E-06     94.2537E-06     94.2537E-06    -26.6193E-06    -66.1659E-06    -57.5103E-06    -26.3983E-06     85.3771E-06    -2.03032E-06    -37.1433E-06     11.3069E-06     969.310E-03         1.11668         1.11668     308.169E-03     43.6434E-03         1.07304    -489.499E-03     877.944E-03     101.541E-03     309.647E-03         1.05731    -6.79036E-03    -124.225E-03     37.8157E-03
             149              0.              0.              0.              0.              0.              0.              0.              0.     144.719E-06    -117.712E-06     52.2767E-06     65.9898E-06     103.209E-06     103.209E-06    -39.4514E-06    -62.3625E-06    -53.8691E-06    -38.1586E-06     93.4226E-06    -4.25267E-06    -33.3020E-06     26.1910E-06     103.209E-06     103.209E-06    -39.4514E-06    -62.3625E-06    -53.8691E-06    -38.1586E-06     93.4226E-06    -4.25267E-06    -33.3020E-06     26.1910E-06         1.04266         1.15225         1.15225     197.995E-03     44.7433E-03         1.10750    -464.994E-03         1.00592     101.556E-03     206.643E-03         1.08678    -14.2230E-03    -111.378E-03     87.5955E-03
             150              0.              0.              0.              0.              0.              0.              0.              0.     186.216E-06    -115.000E-06     115.000E-06     90.7012E-06     116.073E-06     116.073E-06    -52.1645E-06    -62.5787E-06    -50.8743E-06    -50.8743E-06     103.078E-06    -5.42485E-06    -31.0320E-06     31.0320E-06     116.073E-06     116.073E-06    -52.1645E-06    -62.5787E-06    -50.8743E-06    -50.8743E-06     103.078E-06    -5.42485E-06    -31.0320E-06     31.0320E-06         1.16238         1.21663         1.21663     91.2928E-03     21.6326E-03         1.19499    -443.184E-03         1.15570     99.9234E-03     99.9234E-03         1.12970    -18.1433E-03    -103.786E-03     103.786E-03
             151     510.729E-03     199.628E-03     199.628E-03    -425.607E-03     510.729E-03     199.628E-03     199.628E-03    -425.607E-03              0.    -199.628E-39    -199.628E-39     425.607E-39     108.947E-06     108.947E-06    -29.5116E-06    -77.2692E-06    -29.5116E-06    -29.5116E-06     61.1896E-06     17.4701E-21    -115.000E-06    -115.000E-06     108.947E-06     108.947E-06    -29.5116E-06    -77.2692E-06    -29.5116E-06    -29.5116E-06     61.1896E-06     17.4701E-21    -115.000E-06    -115.000E-06         1.12056         1.44601         1.44601     519.862E-03     200.414E-03         1.24559    -722.095E-03         1.01024     519.862E-03     519.862E-03         1.12656     58.7638E-18    -384.614E-03    -384.614E-03
             152     750.615E-03     388.760E-03     84.5540E-03    -636.506E-03     750.615E-03     388.760E-03     84.5540E-03    -636.506E-03              0.    -388.760E-39    -84.5540E-39     636.506E-39     84.0405E-06     84.0405E-06    -21.3139E-06    -60.6786E-06    -21.3139E-06    -21.3139E-06     44.6758E-06    -8.52327E-21    -117.712E-06    -52.2767E-06     84.0405E-06     84.0405E-06    -21.3139E-06    -60.6786E-06    -21.3139E-06    -21.3139E-06     44.6758E-06    -8.52327E-21    -117.712E-06    -52.2767E-06     866.895E-03         1.24024         1.24024     535.527E-03     272.218E-03     968.021E-03    -682.661E-03     768.898E-03     535.527E-03     535.527E-03     976.930E-03    -27.7556E-18    -393.686E-03    -174.839E-03
             153     751.097E-03     398.310E-03     56.0420E-03    -634.315E-03     751.097E-03     398.310E-03     56.0420E-03    -634.315E-03              0.    -398.310E-39    -56.0420E-39     634.315E-39     80.9186E-06     80.9186E-06    -20.6402E-06    -58.1952E-06    -20.6402E-06    -20.6402E-06     43.3635E-06     3.09862E-21    -122.386E-06    -16.6690E-06     80.9186E-06     80.9186E-06    -20.6402E-06    -58.1952E-06    -20.6402E-06    -20.6402E-06     43.3635E-06     3.09862E-21    -122.386E-06    -16.6690E-06     833.806E-03         1.23102         1.23102     551.697E-03     300.492E-03     930.527E-03    -694.403E-03     741.218E-03     551.697E-03     551.697E-03     979.815E-03     9.12085E-18    -409.318E-03    -55.7490E-03
             154     751.097E-03     398.310E-03    -56.0420E-03    -634.315E-03     751.097E-03     398.310E-03    -56.0420E-03    -634.315E-03              0.    -398.310E-39     56.0420E-39     634.315E-39     80.9186E-06     80.9186E-06    -20.6402E-06    -58.1952E-06    -20.6402E-06    -20.6402E-06     43.3635E-06    -833.798E-24    -122.386E-06     16.6690E-06     80.9186E-06     80.9186E-06    -20.6402E-06    -58.1952E-06    -20.6402E-06    -20.6402E-06     43.3635E-06    -833.798E-24    -122.386E-06     16.6690E-06     833.806E-03         1.23102         1.23102     551.697E-03     300.492E-03     930.527E-03    -694.403E-03     741.218E-03     551.697E-03     551.697E-03     979.815E-03    -3.03577E-18    -409.318E-03     55.7490E-03
             155     750.615E-03     388.760E-03    -84.5540E-03    -636.506E-03     750.615E-03     388.760E-03    -84.5540E-03    -636.506E-03              0.    -388.760E-39     84.5540E-39     636.506E-39     84.0405E-06     84.0405E-06    -21.3139E-06    -60.6786E-06    -21.3139E-06    -21.3139E-06     44.6758E-06    -15.1407E-21    -117.712E-06     52.2767E-06     84.0405E-06     84.0405E-06    -21.3139E-06    -60.6786E-06    -21.3139E-06    -21.3139E-06     44.6758E-06    -15.1407E-21    -117.712E-06     52.2767E-06     866.895E-03         1.24024         1.24024     535.527E-03     272.218E-03     968.021E-03    -682.661E-03     768.898E-03     535.527E-03     535.527E-03     976.930E-03    -51.8249E-18    -393.686E-03     174.839E-03
             156     510.729E-03     199.628E-03    -199.628E-03    -425.607E-03     510.729E-03     199.628E-03    -199.628E-03    -425.607E-03              0.    -199.628E-39     199.628E-39     425.607E-39     108.947E-06     108.947E-06    -29.5116E-06    -77.2692E-06    -29.5116E-06    -29.5116E-06     61.1896E-06     9.31736E-21    -115.000E-06     115.000E-06     108.947E-06     108.947E-06    -29.5116E-06    -77.2692E-06    -29.5116E-06    -29.5116E-06     61.1896E-06     9.31736E-21    -115.000E-06     115.000E-06         1.12056         1.44601         1.44601     519.862E-03     200.414E-03         1.24559    -722.095E-03         1.01024     519.862E-03     519.862E-03         1.12656     31.2250E-18    -384.614E-03     384.614E-03
             157              0.              0.              0.              0.              0.              0.              0.              0.     2.45259E-03    -74.2499E-06    -123.750E-06     2.44834E-03     100.000E-06     100.000E-06    -49.4999E-06    -49.5001E-06    -49.5000E-06    -49.5000E-06     100.000E-06     56.1986E-12     171.431E-12     57.9965E-12     100.000E-06     100.000E-06    -49.4999E-06    -49.5001E-06    -49.5000E-06    -49.5000E-06     100.000E-06     56.1986E-12     171.431E-12     57.9965E-12         1.00000              1.              1.     657.234E-09    -764.267E-09         1.00000    -333.333E-03         1.00000    -224.004E-09     116.971E-09              1.     187.955E-09     573.349E-09     193.968E-09
             158              0.              0.              0.              0.              0.              0.              0.              0.     2.45059E-03    -74.2500E-06    -74.2500E-06     2.44834E-03    100.0000E-06    100.0000E-06    -49.4999E-06    -49.5001E-06    -49.5000E-06    -49.5000E-06    100.0000E-06     72.6791E-12    -33.5959E-12    -33.5959E-12    100.0000E-06    100.0000E-06    -49.4999E-06    -49.5001E-06    -49.5000E-06    -49.5000E-06    100.0000E-06     72.6791E-12    -33.5959E-12    -33.5959E-12              1.              1.              1.     389.763E-09    -403.976E-09         1.00000    -333.333E-03              1.    -7.10645E-09    -7.10644E-09              1.     243.074E-09    -112.361E-09    -112.361E-09
             159              0.              0.              0.              0.              0.              0.              0.              0.     2.44959E-03    -74.2500E-06    -24.7500E-06     2.44834E-03     100.000E-06     100.000E-06    -49.5000E-06    -49.5000E-06    -49.5000E-06    -49.5000E-06     100.000E-06    -53.0406E-12     22.0223E-12     31.5016E-12     100.000E-06     100.000E-06    -49.5000E-06    -49.5000E-06    -49.5000E-06    -49.5000E-06     100.000E-06    -53.0406E-12     22.0223E-12     31.5016E-12              1.              1.              1.     265.318E-09    -294.441E-09         1.00000    -333.333E-03         1.00000    -12.4152E-09    -16.7077E-09              1.    -177.393E-09     73.6533E-09     105.356E-09
             160              0.              0.              0.              0.              0.              0.              0.              0.     2.44959E-03    -74.2500E-06     24.7500E-06     2.44834E-03     100.000E-06     100.000E-06    -49.5000E-06    -49.5000E-06    -49.5000E-06    -49.5000E-06     100.000E-06     53.0406E-12     22.0223E-12    -31.5016E-12     100.000E-06     100.000E-06    -49.5000E-06    -49.5000E-06    -49.5000E-06    -49.5000E-06     100.000E-06     53.0406E-12     22.0223E-12    -31.5016E-12              1.              1.              1.     265.322E-09    -294.444E-09         1.00000    -333.333E-03         1.00000    -12.4147E-09    -16.7074E-09              1.     177.393E-09     73.6532E-09    -105.357E-09
             161              0.              0.              0.              0.              0.              0.              0.              0.     2.45059E-03    -74.2500E-06     74.2500E-06     2.44834E-03    100.0000E-06    100.0000E-06    -49.4999E-06    -49.5001E-06    -49.5000E-06    -49.5000E-06    100.0000E-06    -72.6791E-12    -33.5959E-12     33.5959E-12    100.0000E-06    100.0000E-06    -49.4999E-06    -49.5001E-06    -49.5000E-06    -49.5000E-06    100.0000E-06    -72.6791E-12    -33.5959E-12     33.5959E-12              1.              1.              1.     389.763E-09    -403.976E-09         1.00000    -333.333E-03              1.    -7.10683E-09    -7.10654E-09              1.    -243.074E-09    -112.361E-09     112.361E-09
             162              0.              0.              0.              0.              0.              0.              0.              0.     2.45259E-03    -74.2499E-06     123.750E-06     2.44834E-03     100.000E-06     100.000E-06    -49.4999E-06    -49.5001E-06    -49.5000E-06    -49.5000E-06     100.000E-06    -56.1986E-12     171.431E-12    -57.9966E-12     100.000E-06     100.000E-06    -49.4999E-06    -49.5001E-06    -49.5000E-06    -49.5000E-06     100.000E-06    -56.1986E-12     171.431E-12    -57.9966E-12         1.00000              1.              1.     657.224E-09    -764.256E-09         1.00000    -333.333E-03         1.00000    -224.004E-09     116.972E-09              1.    -187.955E-09     573.349E-09    -193.968E-09
             163              0.              0.              0.              0.              0.              0.              0.              0.     2.35277E-03    -74.2501E-06    -123.750E-06     2.34834E-03    100.0000E-06    100.0000E-06    -49.4999E-06    -49.5001E-06    -49.5000E-06    -49.5000E-06    100.0000E-06    -62.7388E-12     15.7553E-12    -28.3245E-12    100.0000E-06    100.0000E-06    -49.4999E-06    -49.5001E-06    -49.5000E-06    -49.5000E-06    100.0000E-06    -62.7388E-12     15.7553E-12    -28.3245E-12              1.              1.              1.     842.799E-09    -777.840E-09         1.00000    -333.333E-03              1.     222.578E-09    -157.619E-09              1.    -209.829E-09     52.6933E-09    -94.7309E-09
             164              0.              0.              0.              0.              0.              0.              0.              0.     2.35069E-03    -74.2500E-06    -74.2500E-06     2.34834E-03     100.000E-06     100.000E-06    -49.4999E-06    -49.5001E-06    -49.5000E-06    -49.5000E-06     100.000E-06    -82.3271E-12    -7.05059E-12    -7.05058E-12     100.000E-06     100.000E-06    -49.4999E-06    -49.5001E-06    -49.5000E-06    -49.5000E-06     100.000E-06    -82.3271E-12    -7.05059E-12    -7.05058E-12              1.              1.              1.     458.486E-09    -426.049E-09         1.00000    -333.333E-03              1.     16.2187E-09     16.2187E-09              1.    -275.341E-09    -23.5806E-09    -23.5805E-09
             165              0.              0.              0.              0.              0.              0.              0.              0.     2.34964E-03    -74.2500E-06    -24.7500E-06     2.34834E-03    100.0000E-06    100.0000E-06    -49.5000E-06    -49.5000E-06    -49.5000E-06    -49.5000E-06    100.0000E-06     60.1341E-12     2.51882E-12    -278.814E-15    100.0000E-06    100.0000E-06    -49.5000E-06    -49.5000E-06    -49.5000E-06    -49.5000E-06    100.0000E-06     60.1341E-12     2.51882E-12    -278.814E-15              1.              1.              1.     327.202E-09    -300.840E-09         1.00000    -333.333E-03    1000.000E-03     12.3440E-09     14.0186E-09              1.     201.117E-09     8.42415E-09    -932.488E-12
             166              0.              0.              0.              0.              0.              0.              0.              0.     2.34964E-03    -74.2500E-06     24.7500E-06     2.34834E-03    100.0000E-06    100.0000E-06    -49.5000E-06    -49.5000E-06    -49.5000E-06    -49.5000E-06    100.0000E-06    -60.1341E-12     2.51882E-12     278.774E-15    100.0000E-06    100.0000E-06    -49.5000E-06    -49.5000E-06    -49.5000E-06    -49.5000E-06    100.0000E-06    -60.1341E-12     2.51882E-12     278.774E-15              1.              1.              1.     327.205E-09    -300.843E-09         1.00000    -333.333E-03    1000.000E-03     12.3438E-09     14.0184E-09              1.    -201.117E-09     8.42415E-09     932.356E-12
             167              0.              0.              0.              0.              0.              0.              0.              0.     2.35069E-03    -74.2500E-06     74.2500E-06     2.34834E-03     100.000E-06     100.000E-06    -49.4999E-06    -49.5001E-06    -49.5000E-06    -49.5000E-06     100.000E-06     82.3271E-12    -7.05062E-12     7.05059E-12     100.000E-06     100.000E-06    -49.4999E-06    -49.5001E-06    -49.5000E-06    -49.5000E-06     100.000E-06     82.3271E-12    -7.05062E-12     7.05059E-12              1.              1.              1.     458.487E-09    -426.050E-09         1.00000    -333.333E-03              1.     16.2185E-09     16.2185E-09              1.     275.341E-09    -23.5807E-09     23.5806E-09
             168              0.              0.              0.              0.              0.              0.              0.              0.     2.35277E-03    -74.2501E-06     123.750E-06     2.34834E-03    100.0000E-06    100.0000E-06    -49.4999E-06    -49.5001E-06    -49.5000E-06    -49.5000E-06    100.0000E-06     62.7388E-12     15.7553E-12     28.3245E-12    100.0000E-06    100.0000E-06    -49.4999E-06    -49.5001E-06    -49.5000E-06    -49.5000E-06    100.0000E-06     62.7388E-12     15.7553E-12     28.3245E-12              1.              1.              1.     842.799E-09    -777.841E-09         1.00000    -333.333E-03              1.     222.578E-09    -157.620E-09              1.     209.829E-09     52.6933E-09     94.7309E-09
             169              0.              0.              0.              0.              0.              0.              0.              0.     2.25297E-03    -74.2499E-06    -123.750E-06     2.24834E-03     100.000E-06     100.000E-06    -49.4998E-06    -49.5002E-06    -49.5000E-06    -49.5000E-06     100.000E-06     79.3632E-12    -34.2928E-12     57.5160E-12     100.000E-06     100.000E-06    -49.4998E-06    -49.5002E-06    -49.5000E-06    -49.5000E-06     100.000E-06     79.3632E-12    -34.2928E-12     57.5160E-12         1.00000              1.              1.     1.02245E-06    -1.14489E-06         1.00000    -333.333E-03         1.00000    -313.696E-09     191.260E-09              1.     265.429E-09    -114.692E-09     192.361E-09
             170              0.              0.              0.              0.              0.              0.              0.              0.     2.25079E-03    -74.2500E-06    -74.2500E-06     2.24834E-03    100.0000E-06    100.0000E-06    -49.4999E-06    -49.5001E-06    -49.5000E-06    -49.5000E-06    100.0000E-06     108.714E-12     16.8344E-12     16.8344E-12    100.0000E-06    100.0000E-06    -49.4999E-06    -49.5001E-06    -49.5000E-06    -49.5000E-06    100.0000E-06     108.714E-12     16.8344E-12     16.8344E-12              1.              1.              1.     538.915E-09    -605.618E-09         1.00000    -333.333E-03              1.    -33.3515E-09    -33.3514E-09              1.     363.593E-09     56.3024E-09     56.3024E-09
             171              0.              0.              0.              0.              0.              0.              0.              0.     2.24970E-03    -74.2500E-06    -24.7500E-06     2.24834E-03     100.000E-06     100.000E-06    -49.4999E-06    -49.5001E-06    -49.5000E-06    -49.5000E-06     100.000E-06    -78.1729E-12    -5.36171E-12     2.29523E-12     100.000E-06     100.000E-06    -49.4999E-06    -49.5001E-06    -49.5000E-06    -49.5000E-06     100.000E-06    -78.1729E-12    -5.36171E-12     2.29523E-12              1.              1.              1.     384.598E-09    -427.144E-09         1.00000    -333.333E-03              1.    -21.5464E-09    -20.9997E-09              1.    -261.448E-09    -17.9321E-09     7.67637E-09
             172              0.              0.              0.              0.              0.              0.              0.              0.     2.24970E-03    -74.2500E-06     24.7500E-06     2.24834E-03     100.000E-06     100.000E-06    -49.4999E-06    -49.5001E-06    -49.5000E-06    -49.5000E-06     100.000E-06     78.1730E-12    -5.36173E-12    -2.29528E-12     100.000E-06     100.000E-06    -49.4999E-06    -49.5001E-06    -49.5000E-06    -49.5000E-06     100.000E-06     78.1730E-12    -5.36173E-12    -2.29528E-12              1.              1.              1.     384.598E-09    -427.144E-09         1.00000    -333.333E-03              1.    -21.5463E-09    -20.9996E-09              1.     261.448E-09    -17.9322E-09    -7.67651E-09
             173              0.              0.              0.              0.              0.              0.              0.              0.     2.25079E-03    -74.2500E-06     74.2500E-06     2.24834E-03    100.0000E-06    100.0000E-06    -49.4999E-06    -49.5001E-06    -49.5000E-06    -49.5000E-06    100.0000E-06    -108.714E-12     16.8345E-12    -16.8345E-12    100.0000E-06    100.0000E-06    -49.4999E-06    -49.5001E-06    -49.5000E-06    -49.5000E-06    100.0000E-06    -108.714E-12     16.8345E-12    -16.8345E-12              1.              1.              1.     538.925E-09    -605.628E-09         1.00000    -333.333E-03              1.    -33.3514E-09    -33.3515E-09              1.    -363.593E-09     56.3025E-09    -56.3025E-09
             174              0.              0.              0.              0.              0.              0.              0.              0.     2.25297E-03    -74.2499E-06     123.750E-06     2.24834E-03     100.000E-06     100.000E-06    -49.4998E-06    -49.5002E-06    -49.5000E-06    -49.5000E-06     100.000E-06    -79.3632E-12    -34.2929E-12    -57.5161E-12     100.000E-06     100.000E-06    -49.4998E-06    -49.5002E-06    -49.5000E-06    -49.5000E-06     100.000E-06    -79.3632E-12    -34.2929E-12    -57.5161E-12         1.00000              1.              1.     1.02245E-06    -1.14489E-06         1.00000    -333.333E-03         1.00000    -313.696E-09     191.260E-09              1.    -265.429E-09    -114.692E-09    -192.361E-09
             175              0.              0.              0.              0.              0.              0.              0.              0.     2.15318E-03    -74.2502E-06    -123.750E-06     2.14834E-03    100.0000E-06    100.0000E-06    -49.4998E-06    -49.5002E-06    -49.4999E-06    -49.5000E-06    100.0000E-06    -112.924E-12     61.2385E-12    -94.7104E-12    100.0000E-06    100.0000E-06    -49.4998E-06    -49.5002E-06    -49.4999E-06    -49.5000E-06    100.0000E-06    -112.924E-12     61.2385E-12    -94.7104E-12    1000.000E-03    1000.000E-03    1000.000E-03     1.68896E-06    -1.51573E-06         1.00000    -333.333E-03    1000.000E-03     443.164E-09    -269.931E-09    1000.000E-03    -377.673E-09     204.811E-09    -316.757E-09
             176              0.              0.              0.              0.              0.              0.              0.              0.     2.15090E-03    -74.2500E-06    -74.2500E-06     2.14834E-03    100.0000E-06    100.0000E-06    -49.4999E-06    -49.5001E-06    -49.5000E-06    -49.5000E-06    100.0000E-06    -159.734E-12    -30.1318E-12    -30.1318E-12    100.0000E-06    100.0000E-06    -49.4999E-06    -49.5001E-06    -49.5000E-06    -49.5000E-06    100.0000E-06    -159.734E-12    -30.1318E-12    -30.1318E-12              1.              1.              1.     878.513E-09    -755.505E-09         1.00000    -333.333E-03              1.     61.5039E-09     61.5039E-09              1.    -534.226E-09    -100.775E-09    -100.775E-09
             177              0.              0.              0.              0.              0.              0.              0.              0.     2.14976E-03    -74.2500E-06    -24.7500E-06     2.14834E-03    100.0000E-06    100.0000E-06    -49.4999E-06    -49.5001E-06    -49.5000E-06    -49.5000E-06    100.0000E-06     113.074E-12     9.61813E-12    -3.80575E-12    100.0000E-06    100.0000E-06    -49.4999E-06    -49.5001E-06    -49.5000E-06    -49.5000E-06    100.0000E-06     113.074E-12     9.61813E-12    -3.80575E-12    1000.000E-03    1000.000E-03    1000.000E-03     615.899E-09    -545.395E-09         1.00000    -333.333E-03    1000.000E-03     34.1111E-09     36.3923E-09    1000.000E-03     378.175E-09     32.1676E-09    -12.7283E-09
             178              0.              0.              0.              0.              0.              0.              0.              0.     2.14976E-03    -74.2500E-06     24.7500E-06     2.14834E-03    100.0000E-06    100.0000E-06    -49.4999E-06    -49.5001E-06    -49.5000E-06    -49.5000E-06    100.0000E-06    -113.074E-12     9.61813E-12     3.80571E-12    100.0000E-06    100.0000E-06    -49.4999E-06    -49.5001E-06    -49.5000E-06    -49.5000E-06    100.0000E-06    -113.074E-12     9.61813E-12     3.80571E-12    1000.000E-03    1000.000E-03    1000.000E-03     615.896E-09    -545.393E-09         1.00000    -333.333E-03    1000.000E-03     34.1109E-09     36.3922E-09    1000.000E-03    -378.175E-09     32.1677E-09     12.7281E-09
             179              0.              0.              0.              0.              0.              0.              0.              0.     2.15090E-03    -74.2500E-06     74.2500E-06     2.14834E-03    100.0000E-06    100.0000E-06    -49.4999E-06    -49.5001E-06    -49.5000E-06    -49.5000E-06    100.0000E-06     159.734E-12    -30.1319E-12     30.1318E-12    100.0000E-06    100.0000E-06    -49.4999E-06    -49.5001E-06    -49.5000E-06    -49.5000E-06    100.0000E-06     159.734E-12    -30.1319E-12     30.1318E-12              1.              1.              1.     878.515E-09    -755.508E-09         1.00000    -333.333E-03              1.     61.5037E-09     61.5036E-09              1.     534.226E-09    -100.775E-09     100.775E-09
             180              0.              0.              0.              0.              0.              0.              0.              0.     2.15318E-03    -74.2502E-06     123.750E-06     2.14834E-03    100.0000E-06    100.0000E-06    -49.4998E-06    -49.5002E-06    -49.4999E-06    -49.5000E-06    100.0000E-06     112.924E-12     61.2385E-12     94.7104E-12    100.0000E-06    100.0000E-06    -49.4998E-06    -49.5002E-06    -49.4999E-06    -49.5000E-06    100.0000E-06     112.924E-12     61.2385E-12     94.7104E-12    1000.000E-03    1000.000E-03    1000.000E-03     1.68896E-06    -1.51573E-06         1.00000    -333.333E-03    1000.000E-03     443.164E-09    -269.930E-09    1000.000E-03     377.673E-09     204.811E-09     316.757E-09
             181              0.              0.              0.              0.              0.              0.              0.              0.     2.05342E-03    -74.2497E-06    -123.750E-06     2.04834E-03     100.000E-06     100.000E-06    -49.4996E-06    -49.5004E-06    -49.5001E-06    -49.4999E-06     100.000E-06     168.976E-12    -102.125E-12     141.313E-12     100.000E-06     100.000E-06    -49.4996E-06    -49.5004E-06    -49.5001E-06    -49.4999E-06     100.000E-06     168.976E-12    -102.125E-12     141.313E-12         1.00000         1.00000         1.00000     2.36248E-06    -2.61822E-06         1.00000    -333.333E-03         1.00000    -650.290E-09     394.550E-09         1.00000     565.137E-09    -341.556E-09     472.618E-09
             182              0.              0.              0.              0.              0.              0.              0.              0.     2.05103E-03    -74.2500E-06    -74.2500E-06     2.04834E-03     100.000E-06     100.000E-06    -49.4998E-06    -49.5002E-06    -49.5000E-06    -49.5000E-06     100.000E-06     246.587E-12     49.8199E-12     49.8199E-12     100.000E-06     100.000E-06    -49.4998E-06    -49.5002E-06    -49.5000E-06    -49.5000E-06     100.000E-06     246.587E-12     49.8199E-12     49.8199E-12              1.    1000.000E-03    1000.000E-03     1.10454E-06    -1.34242E-06         1.00000    -333.333E-03              1.    -118.940E-09    -118.940E-09    1000.000E-03     824.704E-09     166.622E-09     166.622E-09
             183              0.              0.              0.              0.              0.              0.              0.              0.     2.04983E-03    -74.2500E-06    -24.7500E-06     2.04834E-03     100.000E-06     100.000E-06    -49.4999E-06    -49.5001E-06    -49.5000E-06    -49.5000E-06     100.000E-06    -171.854E-12    -16.1107E-12     5.94495E-12     100.000E-06     100.000E-06    -49.4999E-06    -49.5001E-06    -49.5000E-06    -49.5000E-06     100.000E-06    -171.854E-12    -16.1107E-12     5.94495E-12         1.00000         1.00000         1.00000     819.134E-09    -936.958E-09         1.00000    -333.333E-03         1.00000    -54.9599E-09    -62.8633E-09         1.00000    -574.764E-09    -53.8818E-09     19.8828E-09
             184              0.              0.              0.              0.              0.              0.              0.              0.     2.04983E-03    -74.2500E-06     24.7500E-06     2.04834E-03     100.000E-06     100.000E-06    -49.4999E-06    -49.5001E-06    -49.5000E-06    -49.5000E-06     100.000E-06     171.854E-12    -16.1107E-12    -5.94498E-12     100.000E-06     100.000E-06    -49.4999E-06    -49.5001E-06    -49.5000E-06    -49.5000E-06     100.000E-06     171.854E-12    -16.1107E-12    -5.94498E-12         1.00000         1.00000         1.00000     819.145E-09    -936.968E-09         1.00000    -333.333E-03         1.00000    -54.9599E-09    -62.8631E-09         1.00000     574.764E-09    -53.8818E-09    -19.8829E-09
             185              0.              0.              0.              0.              0.              0.              0.              0.     2.05103E-03    -74.2500E-06     74.2500E-06     2.04834E-03     100.000E-06     100.000E-06    -49.4998E-06    -49.5002E-06    -49.5000E-06    -49.5000E-06     100.000E-06    -246.587E-12     49.8199E-12    -49.8199E-12     100.000E-06     100.000E-06    -49.4998E-06    -49.5002E-06    -49.5000E-06    -49.5000E-06     100.000E-06    -246.587E-12     49.8199E-12    -49.8199E-12              1.    1000.000E-03    1000.000E-03     1.10455E-06    -1.34243E-06         1.00000    -333.333E-03              1.    -118.940E-09    -118.940E-09    1000.000E-03    -824.704E-09     166.622E-09    -166.622E-09
             186              0.              0.              0.              0.              0.              0.              0.              0.     2.05342E-03    -74.2497E-06     123.750E-06     2.04834E-03     100.000E-06     100.000E-06    -49.4996E-06    -49.5004E-06    -49.5001E-06    -49.4999E-06     100.000E-06    -168.976E-12    -102.125E-12    -141.313E-12     100.000E-06     100.000E-06    -49.4996E-06    -49.5004E-06    -49.5001E-06    -49.4999E-06     100.000E-06    -168.976E-12    -102.125E-12    -141.313E-12         1.00000         1.00000         1.00000     2.36248E-06    -2.61823E-06         1.00000    -333.333E-03         1.00000    -650.290E-09     394.550E-09         1.00000    -565.137E-09    -341.557E-09    -472.618E-09
             187              0.              0.              0.              0.              0.              0.              0.              0.     1.95368E-03    -74.2505E-06    -123.750E-06     1.94834E-03    100.0000E-06    100.0000E-06    -49.4994E-06    -49.5006E-06    -49.4999E-06    -49.5001E-06    100.0000E-06    -257.536E-12     165.422E-12    -197.679E-12    100.0000E-06    100.0000E-06    -49.4994E-06    -49.5006E-06    -49.4999E-06    -49.5001E-06    100.0000E-06    -257.536E-12     165.422E-12    -197.679E-12    1000.000E-03    1000.000E-03    1000.000E-03     4.14722E-06    -3.75729E-06         1.00000    -333.333E-03    1000.000E-03     971.771E-09    -581.823E-09    1000.000E-03    -861.323E-09     553.252E-09    -661.132E-09
             188              0.              0.              0.              0.              0.              0.              0.              0.     1.95117E-03    -74.2499E-06    -74.2499E-06     1.94834E-03    100.0000E-06    100.0000E-06    -49.4997E-06    -49.5003E-06    -49.5000E-06    -49.5000E-06    100.0000E-06    -388.154E-12    -81.0015E-12    -81.0015E-12    100.0000E-06    100.0000E-06    -49.4997E-06    -49.5003E-06    -49.5000E-06    -49.5000E-06    100.0000E-06    -388.154E-12    -81.0015E-12    -81.0015E-12    1000.000E-03         1.00000         1.00000     2.10259E-06    -1.63586E-06         1.00000    -333.334E-03    1000.000E-03     233.367E-09     233.367E-09         1.00000    -1.29818E-06    -270.908E-09    -270.908E-09
             189              0.              0.              0.              0.              0.              0.              0.              0.     1.94991E-03    -74.2501E-06    -24.7500E-06     1.94834E-03    100.0000E-06    100.0000E-06    -49.4998E-06    -49.5002E-06    -49.5000E-06    -49.5000E-06    100.0000E-06     266.328E-12     25.0143E-12    -9.45884E-12    100.0000E-06    100.0000E-06    -49.4998E-06    -49.5002E-06    -49.5000E-06    -49.5000E-06    100.0000E-06     266.328E-12     25.0143E-12    -9.45884E-12    1000.000E-03    1000.000E-03    1000.000E-03     1.47177E-06    -1.25824E-06         1.00000    -333.333E-03    1000.000E-03     94.8805E-09     118.650E-09    1000.000E-03     890.730E-09     83.6598E-09    -31.6349E-09
             190              0.              0.              0.              0.              0.              0.              0.              0.     1.94991E-03    -74.2501E-06     24.7500E-06     1.94834E-03    100.0000E-06    100.0000E-06    -49.4998E-06    -49.5002E-06    -49.5000E-06    -49.5000E-06    100.0000E-06    -266.328E-12     25.0143E-12     9.45880E-12    100.0000E-06    100.0000E-06    -49.4998E-06    -49.5002E-06    -49.5000E-06    -49.5000E-06    100.0000E-06    -266.328E-12     25.0143E-12     9.45880E-12    1000.000E-03    1000.000E-03    1000.000E-03     1.47177E-06    -1.25824E-06         1.00000    -333.333E-03    1000.000E-03     94.8806E-09     118.650E-09    1000.000E-03    -890.730E-09     83.6598E-09     31.6348E-09
             191              0.              0.              0.              0.              0.              0.              0.              0.     1.95117E-03    -74.2499E-06     74.2499E-06     1.94834E-03    100.0000E-06    100.0000E-06    -49.4997E-06    -49.5003E-06    -49.5000E-06    -49.5000E-06    100.0000E-06     388.154E-12    -81.0015E-12     81.0015E-12    100.0000E-06    100.0000E-06    -49.4997E-06    -49.5003E-06    -49.5000E-06    -49.5000E-06    100.0000E-06     388.154E-12    -81.0015E-12     81.0015E-12    1000.000E-03         1.00000         1.00000     2.10259E-06    -1.63586E-06         1.00000    -333.334E-03    1000.000E-03     233.367E-09     233.367E-09         1.00000     1.29818E-06    -270.908E-09     270.908E-09
             192              0.              0.              0.              0.              0.              0.              0.              0.     1.95368E-03    -74.2505E-06     123.750E-06     1.94834E-03    100.0000E-06    100.0000E-06    -49.4994E-06    -49.5006E-06    -49.4999E-06    -49.5001E-06    100.0000E-06     257.536E-12     165.422E-12     197.679E-12    100.0000E-06    100.0000E-06    -49.4994E-06    -49.5006E-06    -49.4999E-06    -49.5001E-06    100.0000E-06     257.536E-12     165.422E-12     197.679E-12    1000.000E-03    1000.000E-03    1000.000E-03     4.14722E-06    -3.75729E-06         1.00000    -333.333E-03    1000.000E-03     971.772E-09    -581.823E-09    1000.000E-03     861.323E-09     553.251E-09     661.132E-09
             193              0.              0.              0.              0.              0.              0.              0.              0.     1.85396E-03    -74.2492E-06    -123.750E-06     1.84834E-03     100.000E-06     100.000E-06    -49.4991E-06    -49.5010E-06    -49.5002E-06    -49.4999E-06     100.000E-06     393.540E-12    -267.309E-12     257.414E-12     100.000E-06     100.000E-06    -49.4991E-06    -49.5010E-06    -49.5002E-06    -49.4999E-06     100.000E-06     393.540E-12    -267.309E-12     257.414E-12         1.00000         1.00000         1.00000     6.03354E-06    -6.62451E-06         1.00001    -333.333E-03         1.00000    -1.44589E-06     854.968E-09         1.00000     1.31619E-06    -894.010E-09     860.917E-09
             194              0.              0.              0.              0.              0.              0.              0.              0.     1.85132E-03    -74.2501E-06    -74.2501E-06     1.84834E-03     100.000E-06     100.000E-06    -49.4996E-06    -49.5004E-06    -49.5000E-06    -49.5000E-06     100.000E-06     614.565E-12     128.471E-12     128.471E-12     100.000E-06     100.000E-06    -49.4996E-06    -49.5004E-06    -49.5000E-06    -49.5000E-06     100.000E-06     614.565E-12     128.471E-12     128.471E-12         1.00000    1000.000E-03    1000.000E-03     2.42986E-06    -3.32007E-06         1.00000    -333.333E-03         1.00000    -445.105E-09    -445.105E-09    1000.000E-03     2.05540E-06     429.669E-09     429.669E-09
             195              0.              0.              0.              0.              0.              0.              0.              0.     1.85000E-03    -74.2499E-06    -24.7500E-06     1.84834E-03     100.000E-06     100.000E-06    -49.4997E-06    -49.5003E-06    -49.5000E-06    -49.5000E-06     100.000E-06    -415.638E-12    -40.9358E-12     13.7037E-12     100.000E-06     100.000E-06    -49.4997E-06    -49.5003E-06    -49.5000E-06    -49.5000E-06     100.000E-06    -415.638E-12    -40.9358E-12     13.7037E-12         1.00000         1.00000         1.00000     1.96779E-06    -2.34348E-06         1.00000    -333.333E-03         1.00000    -162.423E-09    -213.261E-09         1.00000    -1.39009E-06    -136.909E-09     45.8319E-09
             196              0.              0.              0.              0.              0.              0.              0.              0.     1.85000E-03    -74.2499E-06     24.7500E-06     1.84834E-03     100.000E-06     100.000E-06    -49.4997E-06    -49.5003E-06    -49.5000E-06    -49.5000E-06     100.000E-06     415.638E-12    -40.9358E-12    -13.7038E-12     100.000E-06     100.000E-06    -49.4997E-06    -49.5003E-06    -49.5000E-06    -49.5000E-06     100.000E-06     415.638E-12    -40.9358E-12    -13.7038E-12         1.00000         1.00000         1.00000     1.96779E-06    -2.34348E-06         1.00000    -333.333E-03         1.00000    -162.423E-09    -213.262E-09         1.00000     1.39009E-06    -136.909E-09    -45.8321E-09
             197              0.              0.              0.              0.              0.              0.              0.              0.     1.85132E-03    -74.2501E-06     74.2501E-06     1.84834E-03     100.000E-06     100.000E-06    -49.4996E-06    -49.5004E-06    -49.5000E-06    -49.5000E-06     100.000E-06    -614.565E-12     128.471E-12    -128.471E-12     100.000E-06     100.000E-06    -49.4996E-06    -49.5004E-06    -49.5000E-06    -49.5000E-06     100.000E-06    -614.565E-12     128.471E-12    -128.471E-12         1.00000    1000.000E-03    1000.000E-03     2.42986E-06    -3.32007E-06         1.00000    -333.333E-03         1.00000    -445.105E-09    -445.105E-09    1000.000E-03    -2.05540E-06     429.669E-09    -429.669E-09
             198              0.              0.              0.              0.              0.              0.              0.              0.     1.85396E-03    -74.2492E-06     123.750E-06     1.84834E-03     100.000E-06     100.000E-06    -49.4991E-06    -49.5010E-06    -49.5002E-06    -49.4999E-06     100.000E-06    -393.540E-12    -267.309E-12    -257.414E-12     100.000E-06     100.000E-06    -49.4991E-06    -49.5010E-06    -49.5002E-06    -49.4999E-06     100.000E-06    -393.540E-12    -267.309E-12    -257.414E-12         1.00000         1.00000         1.00000     6.03354E-06    -6.62451E-06         1.00001    -333.333E-03         1.00000    -1.44589E-06     854.968E-09         1.00000    -1.31619E-06    -894.010E-09    -860.917E-09
             199              0.              0.              0.              0.              0.              0.              0.              0.     1.75428E-03    -74.2512E-06    -123.750E-06     1.74834E-03     99.9999E-06     99.9999E-06    -49.4984E-06    -49.5015E-06    -49.4997E-06    -49.5002E-06     99.9999E-06    -601.505E-12     429.256E-12    -302.175E-12     99.9999E-06     99.9999E-06    -49.4984E-06    -49.5015E-06    -49.4997E-06    -49.5002E-06     99.9999E-06    -601.505E-12     429.256E-12    -302.175E-12     999.999E-03     999.999E-03     999.999E-03     10.6156E-06    -9.72907E-06         1.00001    -333.333E-03     999.999E-03     2.12895E-06    -1.24231E-06     999.999E-03    -2.01172E-06     1.43564E-06    -1.01062E-06
             200              0.              0.              0.              0.              0.              0.              0.              0.     1.75149E-03    -74.2499E-06    -74.2499E-06     1.74834E-03     99.9999E-06     99.9999E-06    -49.4993E-06    -49.5006E-06    -49.5000E-06    -49.5000E-06     99.9999E-06    -976.579E-12    -203.036E-12    -203.036E-12     99.9999E-06     99.9999E-06    -49.4993E-06    -49.5006E-06    -49.5000E-06    -49.5000E-06     99.9999E-06    -976.579E-12    -203.036E-12    -203.036E-12     999.999E-03         1.00000         1.00000     5.27686E-06    -3.59418E-06         1.00000    -333.334E-03     999.999E-03     841.343E-09     841.343E-09         1.00000    -3.26615E-06    -679.049E-09    -679.049E-09
             201              0.              0.              0.              0.              0.              0.              0.              0.     1.75009E-03    -74.2502E-06    -24.7500E-06     1.74834E-03     99.9999E-06     99.9999E-06    -49.4995E-06    -49.5005E-06    -49.5000E-06    -49.5000E-06     99.9999E-06     647.451E-12     63.4265E-12    -19.1597E-12     99.9999E-06     99.9999E-06    -49.4995E-06    -49.5005E-06    -49.5000E-06    -49.5000E-06     99.9999E-06     647.451E-12     63.4265E-12    -19.1597E-12     999.999E-03    1000.000E-03    1000.000E-03     3.75798E-06    -3.10876E-06         1.00000    -333.333E-03     999.999E-03     271.222E-09     378.007E-09    1000.000E-03     2.16539E-06     212.129E-09    -64.0793E-09
             202              0.              0.              0.              0.              0.              0.              0.              0.     1.75009E-03    -74.2502E-06     24.7500E-06     1.74834E-03     99.9999E-06     99.9999E-06    -49.4995E-06    -49.5005E-06    -49.5000E-06    -49.5000E-06     99.9999E-06    -647.451E-12     63.4265E-12     19.1596E-12     99.9999E-06     99.9999E-06    -49.4995E-06    -49.5005E-06    -49.5000E-06    -49.5000E-06     99.9999E-06    -647.451E-12     63.4265E-12     19.1596E-12     999.999E-03    1000.000E-03    1000.000E-03     3.75798E-06    -3.10876E-06         1.00000    -333.333E-03     999.999E-03     271.222E-09     378.007E-09    1000.000E-03    -2.16539E-06     212.129E-09     64.0790E-09
             203              0.              0.              0.              0.              0.              0.              0.              0.     1.75149E-03    -74.2499E-06     74.2499E-06     1.74834E-03     99.9999E-06     99.9999E-06    -49.4993E-06    -49.5006E-06    -49.5000E-06    -49.5000E-06     99.9999E-06     976.579E-12    -203.036E-12     203.036E-12     99.9999E-06     99.9999E-06    -49.4993E-06    -49.5006E-06    -49.5000E-06    -49.5000E-06     99.9999E-06     976.579E-12    -203.036E-12     203.036E-12     999.999E-03         1.00000         1.00000     5.27686E-06    -3.59418E-06         1.00000    -333.334E-03     999.999E-03     841.343E-09     841.343E-09         1.00000     3.26615E-06    -679.049E-09     679.049E-09
             204              0.              0.              0.              0.              0.              0.              0.              0.     1.75428E-03    -74.2512E-06     123.750E-06     1.74834E-03     99.9999E-06     99.9999E-06    -49.4984E-06    -49.5015E-06    -49.4997E-06    -49.5002E-06     99.9999E-06     601.505E-12     429.256E-12     302.175E-12     99.9999E-06     99.9999E-06    -49.4984E-06    -49.5015E-06    -49.4997E-06    -49.5002E-06     99.9999E-06     601.505E-12     429.256E-12     302.175E-12     999.999E-03     999.999E-03     999.999E-03     10.6156E-06    -9.72907E-06         1.00001    -333.333E-03     999.999E-03     2.12895E-06    -1.24231E-06     999.999E-03     2.01172E-06     1.43564E-06     1.01062E-06
             205              0.              0.              0.              0.              0.              0.              0.              0.     1.65465E-03    -74.2481E-06    -123.750E-06     1.64834E-03     100.000E-06     100.000E-06    -49.4977E-06    -49.5026E-06    -49.5005E-06    -49.4998E-06     100.000E-06     908.855E-12    -675.018E-12     287.457E-12     100.000E-06     100.000E-06    -49.4977E-06    -49.5026E-06    -49.5005E-06    -49.4998E-06     100.000E-06     908.855E-12    -675.018E-12     287.457E-12         1.00000         1.00000         1.00000     15.6906E-06    -17.0570E-06         1.00002    -333.333E-03         1.00000    -3.11042E-06     1.74436E-06         1.00000     3.03965E-06    -2.25759E-06     961.395E-09
             206              0.              0.              0.              0.              0.              0.              0.              0.     1.65168E-03    -74.2501E-06    -74.2501E-06     1.64834E-03     100.000E-06     100.000E-06    -49.4990E-06    -49.5011E-06    -49.5001E-06    -49.5001E-06     100.000E-06     1.54466E-09     329.905E-12     329.905E-12     100.000E-06     100.000E-06    -49.4990E-06    -49.5011E-06    -49.5001E-06    -49.5001E-06     100.000E-06     1.54466E-09     329.905E-12     329.905E-12         1.00000    1000.000E-03    1000.000E-03     5.24215E-06    -8.47541E-06         1.00001    -333.332E-03         1.00000    -1.61663E-06    -1.61663E-06    1000.000E-03     5.16610E-06     1.10336E-06     1.10336E-06
             207              0.              0.              0.              0.              0.              0.              0.              0.     1.65020E-03    -74.2496E-06    -24.7501E-06     1.64834E-03     100.000E-06     100.000E-06    -49.4992E-06    -49.5009E-06    -49.5000E-06    -49.5001E-06     100.000E-06    -1.00918E-09    -91.2676E-12     32.4329E-12     100.000E-06     100.000E-06    -49.4992E-06    -49.5009E-06    -49.5000E-06    -49.5001E-06     100.000E-06    -1.00918E-09    -91.2676E-12     32.4329E-12         1.00000         1.00000         1.00000     4.87234E-06    -6.17074E-06         1.00001    -333.333E-03         1.00000    -527.806E-09    -770.576E-09         1.00000    -3.37518E-06    -305.243E-09     108.471E-09
             208              0.              0.              0.              0.              0.              0.              0.              0.     1.65020E-03    -74.2496E-06     24.7501E-06     1.64834E-03     100.000E-06     100.000E-06    -49.4992E-06    -49.5009E-06    -49.5000E-06    -49.5001E-06     100.000E-06     1.00918E-09    -91.2675E-12    -32.4329E-12     100.000E-06     100.000E-06    -49.4992E-06    -49.5009E-06    -49.5000E-06    -49.5001E-06     100.000E-06     1.00918E-09    -91.2675E-12    -32.4329E-12         1.00000         1.00000         1.00000     4.87234E-06    -6.17074E-06         1.00001    -333.333E-03         1.00000    -527.806E-09    -770.577E-09         1.00000     3.37518E-06    -305.243E-09    -108.471E-09
             209              0.              0.              0.              0.              0.              0.              0.              0.     1.65168E-03    -74.2501E-06     74.2501E-06     1.64834E-03     100.000E-06     100.000E-06    -49.4990E-06    -49.5011E-06    -49.5001E-06    -49.5001E-06     100.000E-06    -1.54466E-09     329.905E-12    -329.905E-12     100.000E-06     100.000E-06    -49.4990E-06    -49.5011E-06    -49.5001E-06    -49.5001E-06     100.000E-06    -1.54466E-09     329.905E-12    -329.905E-12         1.00000    1000.000E-03    1000.000E-03     5.24215E-06    -8.47541E-06         1.00001    -333.332E-03         1.00000    -1.61663E-06    -1.61663E-06    1000.000E-03    -5.16610E-06     1.10336E-06    -1.10336E-06
             210              0.              0.              0.              0.              0.              0.              0.              0.     1.65465E-03    -74.2481E-06     123.750E-06     1.64834E-03     100.000E-06     100.000E-06    -49.4977E-06    -49.5026E-06    -49.5005E-06    -49.4998E-06     100.000E-06    -908.855E-12    -675.018E-12    -287.457E-12     100.000E-06     100.000E-06    -49.4977E-06    -49.5026E-06    -49.5005E-06    -49.4998E-06     100.000E-06    -908.855E-12    -675.018E-12    -287.457E-12         1.00000         1.00000         1.00000     15.6906E-06    -17.0570E-06         1.00002    -333.333E-03         1.00000    -3.11042E-06     1.74436E-06         1.00000    -3.03965E-06    -2.25759E-06    -961.395E-09
             211              0.              0.              0.              0.              0.              0.              0.              0.     1.55505E-03    -74.2532E-06    -123.750E-06     1.54834E-03     99.9996E-06     99.9996E-06    -49.4958E-06    -49.5037E-06    -49.4993E-06    -49.5003E-06     99.9996E-06    -1.36746E-09     1.11798E-09    -81.9198E-12     99.9996E-06     99.9996E-06    -49.4958E-06    -49.5037E-06    -49.4993E-06    -49.5003E-06     99.9996E-06    -1.36746E-09     1.11798E-09    -81.9198E-12     999.996E-03     999.997E-03     999.997E-03     27.3606E-06    -25.4906E-06         1.00002    -333.333E-03     999.996E-03     4.29377E-06    -2.42297E-06     999.997E-03    -4.57344E-06     3.73906E-06    -273.979E-09
             212              0.              0.              0.              0.              0.              0.              0.              0.     1.55189E-03    -74.2500E-06    -74.2500E-06     1.54834E-03     99.9997E-06     99.9997E-06    -49.4983E-06    -49.5014E-06    -49.4999E-06    -49.4999E-06     99.9997E-06    -2.44756E-09    -481.328E-12    -481.328E-12     99.9997E-06     99.9997E-06    -49.4983E-06    -49.5014E-06    -49.4999E-06    -49.4999E-06     99.9997E-06    -2.44756E-09    -481.328E-12    -481.328E-12     999.997E-03    1000.000E-03    1000.000E-03     13.5663E-06    -7.77313E-06         1.00001    -333.335E-03     999.997E-03     2.89658E-06     2.89658E-06    1000.000E-03    -8.18580E-06    -1.60979E-06    -1.60979E-06
             213              0.              0.              0.              0.              0.              0.              0.              0.     1.55032E-03    -74.2507E-06    -24.7497E-06     1.54834E-03     99.9998E-06     99.9998E-06    -49.4986E-06    -49.5012E-06    -49.4999E-06    -49.4999E-06     99.9998E-06     1.56112E-09     178.580E-12    -20.3414E-12     99.9998E-06     99.9998E-06    -49.4986E-06    -49.5012E-06    -49.4999E-06    -49.4999E-06     99.9998E-06     1.56112E-09     178.580E-12    -20.3414E-12     999.998E-03     999.999E-03     999.999E-03     9.90010E-06    -7.98491E-06         1.00001    -333.334E-03     999.998E-03     773.319E-09     1.14192E-06     999.999E-03     5.22112E-06     597.259E-09    -68.0314E-09
             214              0.              0.              0.              0.              0.              0.              0.              0.     1.55032E-03    -74.2507E-06     24.7497E-06     1.54834E-03     99.9998E-06     99.9998E-06    -49.4986E-06    -49.5012E-06    -49.4999E-06    -49.4999E-06     99.9998E-06    -1.56112E-09     178.580E-12     20.3414E-12     99.9998E-06     99.9998E-06    -49.4986E-06    -49.5012E-06    -49.4999E-06    -49.4999E-06     99.9998E-06    -1.56112E-09     178.580E-12     20.3414E-12     999.998E-03     999.999E-03     999.999E-03     9.90010E-06    -7.98491E-06         1.00001    -333.334E-03     999.998E-03     773.319E-09     1.14192E-06     999.999E-03    -5.22112E-06     597.259E-09     68.0313E-09
             215              0.              0.              0.              0.              0.              0.              0.              0.     1.55189E-03    -74.2500E-06     74.2500E-06     1.54834E-03     99.9997E-06     99.9997E-06    -49.4983E-06    -49.5014E-06    -49.4999E-06    -49.4999E-06     99.9997E-06     2.44756E-09    -481.328E-12     481.328E-12     99.9997E-06     99.9997E-06    -49.4983E-06    -49.5014E-06    -49.4999E-06    -49.4999E-06     99.9997E-06     2.44756E-09    -481.328E-12     481.328E-12     999.997E-03    1000.000E-03    1000.000E-03     13.5663E-06    -7.77313E-06         1.00001    -333.335E-03     999.997E-03     2.89658E-06     2.89658E-06    1000.000E-03     8.18580E-06    -1.60979E-06     1.60979E-06
             216              0.              0.              0.              0.              0.              0.              0.              0.     1.55505E-03    -74.2532E-06     123.750E-06     1.54834E-03     99.9996E-06     99.9996E-06    -49.4958E-06    -49.5037E-06    -49.4993E-06    -49.5003E-06     99.9996E-06     1.36746E-09     1.11798E-09     81.9198E-12     99.9996E-06     99.9996E-06    -49.4958E-06    -49.5037E-06    -49.4993E-06    -49.5003E-06     99.9996E-06     1.36746E-09     1.11798E-09     81.9198E-12     999.996E-03     999.997E-03     999.997E-03     27.3606E-06    -25.4906E-06         1.00002    -333.333E-03     999.996E-03     4.29377E-06    -2.42297E-06     999.997E-03     4.57344E-06     3.73906E-06     273.979E-09
             217              0.              0.              0.              0.              0.              0.              0.              0.     1.45551E-03    -74.2449E-06    -123.750E-06     1.44834E-03     100.001E-06     100.001E-06    -49.4940E-06    -49.5067E-06    -49.5010E-06    -49.4997E-06     100.001E-06     2.03085E-09    -1.66160E-09    -473.827E-12     100.001E-06     100.001E-06    -49.4940E-06    -49.5067E-06    -49.5010E-06    -49.4997E-06     100.001E-06     2.03085E-09    -1.66160E-09    -473.827E-12         1.00001         1.00001         1.00001     41.0554E-06    -44.0787E-06         1.00005    -333.334E-03         1.00001    -6.07361E-06     3.05247E-06         1.00001     6.79213E-06    -5.55721E-06    -1.58471E-06
             218              0.              0.              0.              0.              0.              0.              0.              0.     1.45214E-03    -74.2499E-06    -74.2499E-06     1.44834E-03     100.001E-06     100.001E-06    -49.4978E-06    -49.5028E-06    -49.5003E-06    -49.5003E-06     100.001E-06     3.86204E-09     851.912E-12     851.912E-12     100.001E-06     100.001E-06    -49.4978E-06    -49.5028E-06    -49.5003E-06    -49.5003E-06     100.001E-06     3.86204E-09     851.912E-12     851.912E-12         1.00001         1.00000         1.00000     11.0296E-06    -22.4484E-06         1.00002    -333.330E-03         1.00001    -5.70938E-06    -5.70938E-06         1.00000     12.9165E-06     2.84920E-06     2.84920E-06
             219              0.              0.              0.              0.              0.              0.              0.              0.     1.45045E-03    -74.2488E-06    -24.7508E-06     1.44834E-03     100.000E-06     100.000E-06    -49.4980E-06    -49.5024E-06    -49.5001E-06    -49.5003E-06     100.000E-06    -2.40146E-09    -154.813E-12     76.0593E-12     100.000E-06     100.000E-06    -49.4980E-06    -49.5024E-06    -49.5001E-06    -49.5003E-06     100.000E-06    -2.40146E-09    -154.813E-12     76.0593E-12         1.00000         1.00000         1.00000     12.3570E-06    -16.8212E-06         1.00002    -333.333E-03         1.00000    -1.72245E-06    -2.74152E-06         1.00000    -8.03163E-06    -517.768E-09     254.379E-09
             220              0.              0.              0.              0.              0.              0.              0.              0.     1.45045E-03    -74.2488E-06     24.7508E-06     1.44834E-03     100.000E-06     100.000E-06    -49.4980E-06    -49.5024E-06    -49.5001E-06    -49.5003E-06     100.000E-06     2.40146E-09    -154.813E-12    -76.0594E-12     100.000E-06     100.000E-06    -49.4980E-06    -49.5024E-06    -49.5001E-06    -49.5003E-06     100.000E-06     2.40146E-09    -154.813E-12    -76.0594E-12         1.00000         1.00000         1.00000     12.3570E-06    -16.8212E-06         1.00002    -333.333E-03         1.00000    -1.72245E-06    -2.74152E-06         1.00000     8.03163E-06    -517.768E-09    -254.379E-09
             221              0.              0.              0.              0.              0.              0.              0.              0.     1.45214E-03    -74.2499E-06     74.2499E-06     1.44834E-03     100.001E-06     100.001E-06    -49.4978E-06    -49.5028E-06    -49.5003E-06    -49.5003E-06     100.001E-06    -3.86204E-09     851.912E-12    -851.912E-12     100.001E-06     100.001E-06    -49.4978E-06    -49.5028E-06    -49.5003E-06    -49.5003E-06     100.001E-06    -3.86204E-09     851.912E-12    -851.912E-12         1.00001         1.00000         1.00000     11.0296E-06    -22.4484E-06         1.00002    -333.330E-03         1.00001    -5.70938E-06    -5.70938E-06         1.00000    -12.9165E-06     2.84920E-06    -2.84920E-06
             222              0.              0.              0.              0.              0.              0.              0.              0.     1.45551E-03    -74.2449E-06     123.750E-06     1.44834E-03     100.001E-06     100.001E-06    -49.4940E-06    -49.5067E-06    -49.5010E-06    -49.4997E-06     100.001E-06    -2.03085E-09    -1.66160E-09     473.827E-12     100.001E-06     100.001E-06    -49.4940E-06    -49.5067E-06    -49.5010E-06    -49.4997E-06     100.001E-06    -2.03085E-09    -1.66160E-09     473.827E-12         1.00001         1.00001         1.00001     41.0554E-06    -44.0787E-06         1.00005    -333.334E-03         1.00001    -6.07361E-06     3.05246E-06         1.00001    -6.79213E-06    -5.55721E-06     1.58471E-06
             223              0.              0.              0.              0.              0.              0.              0.              0.     1.35604E-03    -74.2583E-06    -123.750E-06     1.34834E-03     99.9986E-06     99.9986E-06    -49.4890E-06    -49.5096E-06    -49.4985E-06    -49.5001E-06     99.9986E-06    -2.91805E-09     2.84419E-09     2.02393E-09     99.9986E-06     99.9986E-06    -49.4890E-06    -49.5096E-06    -49.4985E-06    -49.5001E-06     99.9986E-06    -2.91805E-09     2.84419E-09     2.02393E-09     999.986E-03     999.988E-03     999.988E-03     70.8100E-06    -67.1140E-06         1.00006    -333.331E-03     999.986E-03     7.32940E-06    -3.62786E-06     999.988E-03    -9.75938E-06     9.51233E-06     6.76900E-06
             224              0.              0.              0.              0.              0.              0.              0.              0.     1.35242E-03    -74.2506E-06    -74.2506E-06     1.34834E-03     99.9989E-06     99.9989E-06    -49.4954E-06    -49.5034E-06    -49.4994E-06    -49.4994E-06     99.9989E-06    -6.01855E-09    -1.13631E-09    -1.13631E-09     99.9989E-06     99.9989E-06    -49.4954E-06    -49.5034E-06    -49.4994E-06    -49.4994E-06     99.9989E-06    -6.01855E-09    -1.13631E-09    -1.13631E-09     999.989E-03     999.999E-03     999.999E-03     36.7827E-06    -16.8196E-06         1.00002    -333.340E-03     999.989E-03     9.98160E-06     9.98160E-06     999.999E-03    -20.1289E-06    -3.80036E-06    -3.80036E-06
             225              0.              0.              0.              0.              0.              0.              0.              0.     1.35061E-03    -74.2523E-06    -24.7484E-06     1.34834E-03     99.9994E-06     99.9994E-06    -49.4961E-06    -49.5033E-06    -49.4998E-06    -49.4996E-06     99.9994E-06     3.70416E-09     495.329E-12     18.5220E-12     99.9994E-06     99.9994E-06    -49.4961E-06    -49.5033E-06    -49.4998E-06    -49.4996E-06     99.9994E-06     3.70416E-09     495.329E-12     18.5220E-12     999.994E-03     999.997E-03     999.997E-03     27.5769E-06    -20.8994E-06         1.00002    -333.335E-03     999.994E-03     2.67135E-06     4.00674E-06     999.997E-03     12.3885E-06     1.65662E-06     61.9464E-09
             226              0.              0.              0.              0.              0.              0.              0.              0.     1.35061E-03    -74.2523E-06     24.7484E-06     1.34834E-03     99.9994E-06     99.9994E-06    -49.4961E-06    -49.5033E-06    -49.4998E-06    -49.4996E-06     99.9994E-06    -3.70416E-09     495.329E-12    -18.5220E-12     99.9994E-06     99.9994E-06    -49.4961E-06    -49.5033E-06    -49.4998E-06    -49.4996E-06     99.9994E-06    -3.70416E-09     495.329E-12    -18.5220E-12     999.994E-03     999.997E-03     999.997E-03     27.5769E-06    -20.8994E-06         1.00002    -333.335E-03     999.994E-03     2.67135E-06     4.00674E-06     999.997E-03    -12.3885E-06     1.65662E-06    -61.9466E-09
             227              0.              0.              0.              0.              0.              0.              0.              0.     1.35242E-03    -74.2506E-06     74.2506E-06     1.34834E-03     99.9989E-06     99.9989E-06    -49.4954E-06    -49.5034E-06    -49.4994E-06    -49.4994E-06     99.9989E-06     6.01855E-09    -1.13631E-09     1.13631E-09     99.9989E-06     99.9989E-06    -49.4954E-06    -49.5034E-06    -49.4994E-06    -49.4994E-06     99.9989E-06     6.01855E-09    -1.13631E-09     1.13631E-09     999.989E-03     999.999E-03     999.999E-03     36.7827E-06    -16.8196E-06         1.00002    -333.340E-03     999.989E-03     9.98160E-06     9.98160E-06     999.999E-03     20.1289E-06    -3.80036E-06     3.80035E-06
             228              0.              0.              0.              0.              0.              0.              0.              0.     1.35604E-03    -74.2583E-06     123.750E-06     1.34834E-03     99.9986E-06     99.9986E-06    -49.4890E-06    -49.5096E-06    -49.4985E-06    -49.5001E-06     99.9986E-06     2.91805E-09     2.84419E-09    -2.02393E-09     99.9986E-06     99.9986E-06    -49.4890E-06    -49.5096E-06    -49.4985E-06    -49.5001E-06     99.9986E-06     2.91805E-09     2.84419E-09    -2.02393E-09     999.986E-03     999.988E-03     999.988E-03     70.8100E-06    -67.1140E-06         1.00006    -333.331E-03     999.986E-03     7.32940E-06    -3.62786E-06     999.988E-03     9.75938E-06     9.51233E-06    -6.76900E-06
             229              0.              0.              0.              0.              0.              0.              0.              0.     1.25666E-03    -74.2367E-06    -123.751E-06     1.24834E-03     100.002E-06     100.002E-06    -49.4844E-06    -49.5177E-06    -49.5019E-06    -49.5001E-06     100.002E-06     4.31342E-09    -4.33922E-09    -5.26427E-09     100.002E-06     100.002E-06    -49.4844E-06    -49.5177E-06    -49.5019E-06    -49.5001E-06     100.002E-06     4.31342E-09    -4.33922E-09    -5.26427E-09         1.00002         1.00002         1.00002     108.927E-06    -113.749E-06         1.00013    -333.338E-03         1.00002    -8.44618E-06     3.63895E-06         1.00002     14.4262E-06    -14.5124E-06    -17.6062E-06
             230              0.              0.              0.              0.              0.              0.              0.              0.     1.25275E-03    -74.2486E-06    -74.2486E-06     1.24835E-03     100.002E-06     100.002E-06    -49.4946E-06    -49.5076E-06    -49.5011E-06    -49.5011E-06     100.002E-06     9.59469E-09     1.87539E-09     1.87539E-09     100.002E-06     100.002E-06    -49.4946E-06    -49.5076E-06    -49.5011E-06    -49.5011E-06     100.002E-06     9.59469E-09     1.87539E-09     1.87539E-09         1.00002         1.00000         1.00000     24.7222E-06    -62.0640E-06         1.00006    -333.322E-03         1.00002    -18.6705E-06    -18.6705E-06         1.00000     32.0892E-06     6.27220E-06     6.27220E-06
             231              0.              0.              0.              0.              0.              0.              0.              0.     1.25079E-03    -74.2463E-06    -24.7534E-06     1.24834E-03     100.001E-06     100.001E-06    -49.4946E-06    -49.5066E-06    -49.5004E-06    -49.5008E-06     100.001E-06    -5.49866E-09    -397.287E-12    -37.1934E-12     100.001E-06     100.001E-06    -49.4946E-06    -49.5066E-06    -49.5004E-06    -49.5008E-06     100.001E-06    -5.49866E-09    -397.287E-12    -37.1934E-12         1.00001         1.00001         1.00001     34.2839E-06    -45.7958E-06         1.00005    -333.332E-03         1.00001    -4.23323E-06    -7.27655E-06         1.00001    -18.3902E-06    -1.32872E-06    -124.393E-09
             232              0.              0.              0.              0.              0.              0.              0.              0.     1.25079E-03    -74.2463E-06     24.7534E-06     1.24834E-03     100.001E-06     100.001E-06    -49.4946E-06    -49.5066E-06    -49.5004E-06    -49.5008E-06     100.001E-06     5.49866E-09    -397.287E-12     37.1934E-12     100.001E-06     100.001E-06    -49.4946E-06    -49.5066E-06    -49.5004E-06    -49.5008E-06     100.001E-06     5.49866E-09    -397.287E-12     37.1934E-12         1.00001         1.00001         1.00001     34.2839E-06    -45.7958E-06         1.00005    -333.332E-03         1.00001    -4.23323E-06    -7.27655E-06         1.00001     18.3902E-06    -1.32872E-06     124.393E-09
             233              0.              0.              0.              0.              0.              0.              0.              0.     1.25275E-03    -74.2486E-06     74.2486E-06     1.24835E-03     100.002E-06     100.002E-06    -49.4946E-06    -49.5076E-06    -49.5011E-06    -49.5011E-06     100.002E-06    -9.59469E-09     1.87539E-09    -1.87539E-09     100.002E-06     100.002E-06    -49.4946E-06    -49.5076E-06    -49.5011E-06    -49.5011E-06     100.002E-06    -9.59469E-09     1.87539E-09    -1.87539E-09         1.00002         1.00000         1.00000     24.7222E-06    -62.0640E-06         1.00006    -333.322E-03         1.00002    -18.6705E-06    -18.6705E-06         1.00000    -32.0892E-06     6.27220E-06    -6.27220E-06
             234              0.              0.              0.              0.              0.              0.              0.              0.     1.25666E-03    -74.2367E-06     123.751E-06     1.24834E-03     100.002E-06     100.002E-06    -49.4844E-06    -49.5177E-06    -49.5019E-06    -49.5001E-06     100.002E-06    -4.31342E-09    -4.33922E-09     5.26427E-09     100.002E-06     100.002E-06    -49.4844E-06    -49.5177E-06    -49.5019E-06    -49.5001E-06     100.002E-06    -4.31342E-09    -4.33922E-09     5.26427E-09         1.00002         1.00002         1.00002     108.927E-06    -113.749E-06         1.00013    -333.338E-03         1.00002    -8.44618E-06     3.63895E-06         1.00002    -14.4262E-06    -14.5124E-06     17.6062E-06
             235              0.              0.              0.              0.              0.              0.              0.              0.     1.15737E-03    -74.2711E-06    -123.748E-06     1.14834E-03     99.9960E-06     99.9960E-06    -49.4711E-06    -49.5249E-06    -49.4973E-06    -49.4987E-06     99.9960E-06    -5.53638E-09     5.93872E-09     11.9440E-09     99.9960E-06     99.9960E-06    -49.4711E-06    -49.5249E-06    -49.4973E-06    -49.4987E-06     99.9960E-06    -5.53638E-09     5.93872E-09     11.9440E-09     999.960E-03     999.965E-03     999.965E-03     184.934E-06    -175.347E-06         1.00014    -333.325E-03     999.960E-03     9.42836E-06     197.784E-09     999.965E-03    -18.5163E-06     19.8619E-06     39.9466E-06
             236              0.              0.              0.              0.              0.              0.              0.              0.     1.15312E-03    -74.2530E-06    -74.2530E-06     1.14833E-03     99.9959E-06     99.9959E-06    -49.4872E-06    -49.5087E-06    -49.4979E-06    -49.4979E-06     99.9959E-06    -14.3923E-09    -3.60554E-09    -3.60554E-09     99.9959E-06     99.9959E-06    -49.4872E-06    -49.5087E-06    -49.4979E-06    -49.4979E-06     99.9959E-06    -14.3923E-09    -3.60554E-09    -3.60554E-09     999.959E-03     999.996E-03     999.996E-03     109.065E-06    -34.8634E-06         1.00003    -333.357E-03     999.959E-03     37.1027E-06     37.1027E-06     999.996E-03    -48.1348E-06    -12.0586E-06    -12.0586E-06
             237              0.              0.              0.              0.              0.              0.              0.              0.     1.15100E-03    -74.2568E-06    -24.7430E-06     1.14834E-03     99.9973E-06     99.9973E-06    -49.4884E-06    -49.5089E-06    -49.4992E-06    -49.4981E-06     99.9973E-06     8.53973E-09     239.846E-12    -339.948E-12     99.9973E-06     99.9973E-06    -49.4884E-06    -49.5089E-06    -49.4992E-06    -49.4981E-06     99.9973E-06     8.53973E-09     239.846E-12    -339.948E-12     999.973E-03     999.990E-03     999.990E-03     85.7993E-06    -51.5170E-06         1.00004    -333.342E-03     999.973E-03     13.3706E-06     20.9188E-06     999.990E-03     28.5610E-06     802.159E-09    -1.13695E-06
             238              0.              0.              0.              0.              0.              0.              0.              0.     1.15100E-03    -74.2568E-06     24.7430E-06     1.14834E-03     99.9973E-06     99.9973E-06    -49.4884E-06    -49.5089E-06    -49.4992E-06    -49.4981E-06     99.9973E-06    -8.53973E-09     239.846E-12     339.948E-12     99.9973E-06     99.9973E-06    -49.4884E-06    -49.5089E-06    -49.4992E-06    -49.4981E-06     99.9973E-06    -8.53973E-09     239.846E-12     339.948E-12     999.973E-03     999.990E-03     999.990E-03     85.7993E-06    -51.5170E-06         1.00004    -333.342E-03     999.973E-03     13.3706E-06     20.9188E-06     999.990E-03    -28.5610E-06     802.159E-09     1.13695E-06
             239              0.              0.              0.              0.              0.              0.              0.              0.     1.15312E-03    -74.2530E-06     74.2530E-06     1.14833E-03     99.9959E-06     99.9959E-06    -49.4872E-06    -49.5087E-06    -49.4979E-06    -49.4979E-06     99.9959E-06     14.3923E-09    -3.60554E-09     3.60554E-09     99.9959E-06     99.9959E-06    -49.4872E-06    -49.5087E-06    -49.4979E-06    -49.4979E-06     99.9959E-06     14.3923E-09    -3.60554E-09     3.60554E-09     999.959E-03     999.996E-03     999.996E-03     109.065E-06    -34.8634E-06         1.00003    -333.357E-03     999.959E-03     37.1027E-06     37.1027E-06     999.996E-03     48.1348E-06    -12.0586E-06     12.0586E-06
             240              0.              0.              0.              0.              0.              0.              0.              0.     1.15737E-03    -74.2711E-06     123.748E-06     1.14834E-03     99.9960E-06     99.9960E-06    -49.4711E-06    -49.5249E-06    -49.4973E-06    -49.4987E-06     99.9960E-06     5.53638E-09     5.93872E-09    -11.9440E-09     99.9960E-06     99.9960E-06    -49.4711E-06    -49.5249E-06    -49.4973E-06    -49.4987E-06     99.9960E-06     5.53638E-09     5.93872E-09    -11.9440E-09     999.960E-03     999.965E-03     999.965E-03     184.934E-06    -175.347E-06         1.00014    -333.325E-03     999.960E-03     9.42836E-06     197.784E-09     999.965E-03     18.5163E-06     19.8619E-06    -39.9466E-06
             241              0.              0.              0.              0.              0.              0.              0.              0.     1.05823E-03    -74.2128E-06    -123.753E-06     1.04834E-03     100.008E-06     100.008E-06    -49.4597E-06    -49.5481E-06    -49.5031E-06    -49.5047E-06     100.008E-06     7.96602E-09    -14.1912E-09    -27.8214E-09     100.008E-06     100.008E-06    -49.4597E-06    -49.5481E-06    -49.5031E-06    -49.5047E-06     100.008E-06     7.96602E-09    -14.1912E-09    -27.8214E-09         1.00008         1.00008         1.00008     298.507E-06    -292.340E-06         1.00037    -333.363E-03         1.00008     8.59394E-06    -2.32137E-06         1.00008     26.6422E-06    -47.4621E-06    -93.0481E-06
             242              0.              0.              0.              0.              0.              0.              0.              0.     1.05361E-03    -74.2406E-06    -74.2406E-06     1.04836E-03     100.008E-06     100.008E-06    -49.4853E-06    -49.5224E-06    -49.5038E-06    -49.5038E-06     100.008E-06     23.1780E-09     1.13091E-09     1.13091E-09     100.008E-06     100.008E-06    -49.4853E-06    -49.5224E-06    -49.5038E-06    -49.5038E-06     100.008E-06     23.1780E-09     1.13091E-09     1.13091E-09         1.00008         1.00002         1.00002     70.7944E-06    -176.788E-06         1.00020    -333.306E-03         1.00008    -52.9902E-06    -52.9902E-06         1.00002     77.5185E-06     3.78231E-06     3.78231E-06
             243              0.              0.              0.              0.              0.              0.              0.              0.     1.05126E-03    -74.2360E-06    -24.7624E-06     1.04835E-03     100.002E-06     100.002E-06    -49.4835E-06    -49.5183E-06    -49.5007E-06    -49.5010E-06     100.002E-06    -12.0718E-09    -4.21312E-09    -2.43228E-09     100.002E-06     100.002E-06    -49.4835E-06    -49.5183E-06    -49.5007E-06    -49.5010E-06     100.002E-06    -12.0718E-09    -4.21312E-09    -2.43228E-09         1.00002         1.00001         1.00001     112.492E-06    -120.201E-06         1.00013    -333.335E-03         1.00002    -2.97075E-06    -4.71475E-06         1.00001    -40.3739E-06    -14.0907E-06    -8.13470E-06
             244              0.              0.              0.              0.              0.              0.              0.              0.     1.05126E-03    -74.2360E-06     24.7624E-06     1.04835E-03     100.002E-06     100.002E-06    -49.4835E-06    -49.5183E-06    -49.5007E-06    -49.5010E-06     100.002E-06     12.0718E-09    -4.21312E-09     2.43228E-09     100.002E-06     100.002E-06    -49.4835E-06    -49.5183E-06    -49.5007E-06    -49.5010E-06     100.002E-06     12.0718E-09    -4.21312E-09     2.43228E-09         1.00002         1.00001         1.00001     112.492E-06    -120.201E-06         1.00013    -333.335E-03         1.00002    -2.97075E-06    -4.71475E-06         1.00001     40.3739E-06    -14.0907E-06     8.13470E-06
             245              0.              0.              0.              0.              0.              0.              0.              0.     1.05361E-03    -74.2406E-06     74.2406E-06     1.04836E-03     100.008E-06     100.008E-06    -49.4853E-06    -49.5224E-06    -49.5038E-06    -49.5038E-06     100.008E-06    -23.1780E-09     1.13091E-09    -1.13091E-09     100.008E-06     100.008E-06    -49.4853E-06    -49.5224E-06    -49.5038E-06    -49.5038E-06     100.008E-06    -23.1780E-09     1.13091E-09    -1.13091E-09         1.00008         1.00002         1.00002     70.7944E-06    -176.788E-06         1.00020    -333.306E-03         1.00008    -52.9902E-06    -52.9902E-06         1.00002    -77.5185E-06     3.78231E-06    -3.78231E-06
             246              0.              0.              0.              0.              0.              0.              0.              0.     1.05823E-03    -74.2128E-06     123.753E-06     1.04834E-03     100.008E-06     100.008E-06    -49.4597E-06    -49.5481E-06    -49.5031E-06    -49.5047E-06     100.008E-06    -7.96602E-09    -14.1912E-09     27.8214E-09     100.008E-06     100.008E-06    -49.4597E-06    -49.5481E-06    -49.5031E-06    -49.5047E-06     100.008E-06    -7.96602E-09    -14.1912E-09     27.8214E-09         1.00008         1.00008         1.00008     298.507E-06    -292.340E-06         1.00037    -333.363E-03         1.00008     8.59394E-06    -2.32137E-06         1.00008    -26.6422E-06    -47.4621E-06     93.0481E-06
             247              0.              0.              0.              0.              0.              0.              0.              0.     959.257E-06    -74.3003E-06    -123.734E-06     948.337E-06     99.9925E-06     99.9925E-06    -49.4262E-06    -49.5663E-06    -49.4984E-06    -49.4940E-06     99.9924E-06    -9.25432E-09     5.88194E-09     50.4076E-09     99.9925E-06     99.9925E-06    -49.4262E-06    -49.5663E-06    -49.4984E-06    -49.4940E-06     99.9924E-06    -9.25432E-09     5.88194E-09     50.4076E-09     999.925E-03     999.942E-03     999.942E-03     485.544E-06    -451.213E-06         1.00039    -333.325E-03     999.924E-03     2.60809E-06     32.0154E-06     999.941E-03    -30.9509E-06     19.6720E-06     168.587E-06
             248              0.              0.              0.              0.              0.              0.              0.              0.     954.092E-06    -74.2593E-06    -74.2593E-06     948.294E-06     99.9859E-06     99.9859E-06    -49.4629E-06    -49.5227E-06    -49.4928E-06    -49.4928E-06     99.9858E-06    -34.7079E-09    -15.4643E-09    -15.4643E-09     99.9859E-06     99.9859E-06    -49.4629E-06    -49.5227E-06    -49.4928E-06    -49.4928E-06     99.9858E-06    -34.7079E-09    -15.4643E-09    -15.4643E-09     999.857E-03         1.00000         1.00000     343.035E-06    -56.8170E-06         1.00006    -333.429E-03     999.857E-03     143.145E-06     143.145E-06         1.00000    -116.080E-06    -51.7200E-06    -51.7200E-06
             249              0.              0.              0.              0.              0.              0.              0.              0.     951.558E-06    -74.2656E-06    -24.7209E-06     948.333E-06     99.9863E-06     99.9863E-06    -49.4630E-06    -49.5231E-06    -49.4964E-06    -49.4897E-06     99.9863E-06     17.6542E-09    -9.25320E-09    -4.33615E-09     99.9863E-06     99.9863E-06    -49.4630E-06    -49.5231E-06    -49.4964E-06    -49.4897E-06     99.9863E-06     17.6542E-09    -9.25320E-09    -4.33615E-09     999.862E-03     999.946E-03     999.946E-03     285.419E-06    -116.602E-06         1.00006    -333.372E-03     999.862E-03     61.9895E-06     106.918E-06     999.946E-03     59.0441E-06    -30.9472E-06    -14.5022E-06
             250              0.              0.              0.              0.              0.              0.              0.              0.     951.558E-06    -74.2656E-06     24.7209E-06     948.333E-06     99.9863E-06     99.9863E-06    -49.4630E-06    -49.5231E-06    -49.4964E-06    -49.4897E-06     99.9863E-06    -17.6542E-09    -9.25320E-09     4.33615E-09     99.9863E-06     99.9863E-06    -49.4630E-06    -49.5231E-06    -49.4964E-06    -49.4897E-06     99.9863E-06    -17.6542E-09    -9.25320E-09     4.33615E-09     999.862E-03     999.946E-03     999.946E-03     285.419E-06    -116.602E-06         1.00006    -333.372E-03     999.862E-03     61.9895E-06     106.918E-06     999.946E-03    -59.0441E-06    -30.9472E-06     14.5022E-06
             251              0.              0.              0.              0.              0.              0.              0.              0.     954.092E-06    -74.2593E-06     74.2593E-06     948.294E-06     99.9859E-06     99.9859E-06    -49.4629E-06    -49.5227E-06    -49.4928E-06    -49.4928E-06     99.9858E-06     34.7079E-09    -15.4643E-09     15.4643E-09     99.9859E-06     99.9859E-06    -49.4629E-06    -49.5227E-06    -49.4928E-06    -49.4928E-06     99.9858E-06     34.7079E-09    -15.4643E-09     15.4643E-09     999.857E-03         1.00000         1.00000     343.035E-06    -56.8170E-06         1.00006    -333.429E-03     999.857E-03     143.145E-06     143.145E-06         1.00000     116.080E-06    -51.7200E-06     51.7200E-06
             252              0.              0.              0.              0.              0.              0.              0.              0.     959.257E-06    -74.3003E-06     123.734E-06     948.337E-06     99.9925E-06     99.9925E-06    -49.4262E-06    -49.5663E-06    -49.4984E-06    -49.4940E-06     99.9924E-06     9.25432E-09     5.88194E-09    -50.4076E-09     99.9925E-06     99.9925E-06    -49.4262E-06    -49.5663E-06    -49.4984E-06    -49.4940E-06     99.9924E-06     9.25432E-09     5.88194E-09    -50.4076E-09     999.925E-03     999.942E-03     999.942E-03     485.544E-06    -451.213E-06         1.00039    -333.325E-03     999.924E-03     2.60809E-06     32.0154E-06     999.941E-03     30.9509E-06     19.6720E-06    -168.587E-06
             253              0.              0.              0.              0.              0.              0.              0.              0.     860.501E-06    -74.1444E-06    -123.768E-06     848.319E-06     100.036E-06     100.036E-06    -49.3985E-06    -49.6374E-06    -49.5049E-06    -49.5308E-06     100.036E-06     5.69717E-09    -45.9538E-09    -118.639E-09     100.036E-06     100.036E-06    -49.3985E-06    -49.6374E-06    -49.5049E-06    -49.5308E-06     100.036E-06     5.69717E-09    -45.9538E-09    -118.639E-09         1.00036         1.00040         1.00040     831.667E-06    -766.046E-06         1.00116    -333.487E-03         1.00036     119.808E-06    -53.3264E-06         1.00040     19.0541E-06    -153.692E-06    -396.787E-06
             254              0.              0.              0.              0.              0.              0.              0.              0.     854.885E-06    -74.2058E-06    -74.2058E-06     848.419E-06     100.027E-06     100.027E-06    -49.4557E-06    -49.5714E-06    -49.5136E-06    -49.5136E-06     100.027E-06     48.7881E-09    -9.64187E-09    -9.64187E-09     100.027E-06     100.027E-06    -49.4557E-06    -49.5714E-06    -49.5136E-06    -49.5136E-06     100.027E-06     48.7881E-09    -9.64187E-09    -9.64187E-09         1.00027         1.00012         1.00012     231.758E-06    -542.242E-06         1.00066    -333.268E-03         1.00027    -155.125E-06    -155.125E-06         1.00012     163.171E-06    -32.2470E-06    -32.2470E-06
             255              0.              0.              0.              0.              0.              0.              0.              0.     851.973E-06    -74.1931E-06    -24.7928E-06     848.374E-06     99.9993E-06     99.9993E-06    -49.4449E-06    -49.5544E-06    -49.5010E-06    -49.4983E-06     99.9993E-06    -27.3826E-09    -27.0689E-09    -13.4372E-09     99.9993E-06     99.9993E-06    -49.4449E-06    -49.5544E-06    -49.5010E-06    -49.4983E-06     99.9993E-06    -27.3826E-09    -27.0689E-09    -13.4372E-09     999.994E-03     999.989E-03     999.989E-03     361.847E-06    -370.609E-06         1.00036    -333.327E-03     999.993E-03    -13.3893E-06     4.90109E-06     999.989E-03    -91.5804E-06    -90.5315E-06    -44.9403E-06
             256              0.              0.              0.              0.              0.              0.              0.              0.     851.973E-06    -74.1931E-06     24.7928E-06     848.374E-06     99.9993E-06     99.9993E-06    -49.4449E-06    -49.5544E-06    -49.5010E-06    -49.4983E-06     99.9993E-06     27.3826E-09    -27.0689E-09     13.4372E-09     99.9993E-06     99.9993E-06    -49.4449E-06    -49.5544E-06    -49.5010E-06    -49.4983E-06     99.9993E-06     27.3826E-09    -27.0689E-09     13.4372E-09     999.994E-03     999.989E-03     999.989E-03     361.847E-06    -370.609E-06         1.00036    -333.327E-03     999.993E-03    -13.3893E-06     4.90109E-06     999.989E-03     91.5804E-06    -90.5315E-06     44.9403E-06
             257              0.              0.              0.              0.              0.              0.              0.              0.     854.885E-06    -74.2058E-06     74.2058E-06     848.419E-06     100.027E-06     100.027E-06    -49.4557E-06    -49.5714E-06    -49.5136E-06    -49.5136E-06     100.027E-06    -48.7881E-09    -9.64187E-09     9.64187E-09     100.027E-06     100.027E-06    -49.4557E-06    -49.5714E-06    -49.5136E-06    -49.5136E-06     100.027E-06    -48.7881E-09    -9.64187E-09     9.64187E-09         1.00027         1.00012         1.00012     231.758E-06    -542.242E-06         1.00066    -333.268E-03         1.00027    -155.125E-06    -155.125E-06         1.00012    -163.171E-06    -32.2470E-06     32.2470E-06
             258              0.              0.              0.              0.              0.              0.              0.              0.     860.501E-06    -74.1444E-06     123.768E-06     848.319E-06     100.036E-06     100.036E-06    -49.3985E-06    -49.6374E-06    -49.5049E-06    -49.5308E-06     100.036E-06    -5.69717E-09    -45.9538E-09     118.639E-09     100.036E-06     100.036E-06    -49.3985E-06    -49.6374E-06    -49.5049E-06    -49.5308E-06     100.036E-06    -5.69717E-09    -45.9538E-09     118.639E-09         1.00036         1.00040         1.00040     831.667E-06    -766.046E-06         1.00116    -333.487E-03         1.00036     119.808E-06    -53.3264E-06         1.00040    -19.0541E-06    -153.692E-06     396.787E-06
             259              0.              0.              0.              0.              0.              0.              0.              0.     762.122E-06    -74.3840E-06    -123.697E-06     748.328E-06     99.9941E-06     99.9941E-06    -49.3125E-06    -49.6817E-06    -49.5182E-06    -49.4757E-06     99.9938E-06    -18.4171E-09     16.8076E-09     205.118E-09     99.9941E-06     99.9941E-06    -49.3125E-06    -49.6817E-06    -49.5182E-06    -49.4757E-06     99.9938E-06    -18.4171E-09     16.8076E-09     205.118E-09     999.944E-03     999.929E-03     999.929E-03     1.22271E-03    -1.24701E-03         1.00118    -333.302E-03     999.937E-03    -152.924E-06     130.833E-06     999.927E-03    -61.5958E-06     56.2128E-06     686.014E-06
             260              0.              0.              0.              0.              0.              0.              0.              0.     755.530E-06    -74.2948E-06    -74.2948E-06     748.189E-06     99.9539E-06     99.9539E-06    -49.3875E-06    -49.5655E-06    -49.4765E-06    -49.4765E-06     99.9537E-06    -94.5812E-09    -30.3695E-09    -30.3695E-09     99.9539E-06     99.9539E-06    -49.3875E-06    -49.5655E-06    -49.4765E-06    -49.4765E-06     99.9537E-06    -94.5812E-09    -30.3695E-09    -30.3695E-09     999.535E-03     999.951E-03     999.951E-03     1.01198E-03    -178.778E-06         1.00013    -333.595E-03     999.533E-03     416.990E-06     416.990E-06     999.950E-03    -316.325E-06    -101.570E-06    -101.570E-06
             261              0.              0.              0.              0.              0.              0.              0.              0.     752.419E-06    -74.2894E-06    -24.6487E-06     748.337E-06     99.9603E-06     99.9603E-06    -49.3891E-06    -49.5712E-06    -49.4894E-06    -49.4708E-06     99.9602E-06     22.6900E-09    -37.2875E-09    -3.09375E-09     99.9603E-06     99.9603E-06    -49.3891E-06    -49.5712E-06    -49.4894E-06    -49.4708E-06     99.9602E-06     22.6900E-09    -37.2875E-09    -3.09375E-09     999.603E-03     999.743E-03     999.743E-03     749.888E-06    -468.323E-06         1.00021    -333.341E-03     999.600E-03     79.1995E-06     203.388E-06     999.741E-03     75.8864E-06    -124.707E-06    -10.3470E-06
             262              0.              0.              0.              0.              0.              0.              0.              0.     752.419E-06    -74.2894E-06     24.6487E-06     748.337E-06     99.9603E-06     99.9603E-06    -49.3891E-06    -49.5712E-06    -49.4894E-06    -49.4708E-06     99.9602E-06    -22.6900E-09    -37.2875E-09     3.09375E-09     99.9603E-06     99.9603E-06    -49.3891E-06    -49.5712E-06    -49.4894E-06    -49.4708E-06     99.9602E-06    -22.6900E-09    -37.2875E-09     3.09375E-09     999.603E-03     999.743E-03     999.743E-03     749.888E-06    -468.323E-06         1.00021    -333.341E-03     999.600E-03     79.1995E-06     203.388E-06     999.741E-03    -75.8864E-06    -124.707E-06     10.3470E-06
             263              0.              0.              0.              0.              0.              0.              0.              0.     755.530E-06    -74.2948E-06     74.2948E-06     748.189E-06     99.9539E-06     99.9539E-06    -49.3875E-06    -49.5655E-06    -49.4765E-06    -49.4765E-06     99.9537E-06     94.5812E-09    -30.3695E-09     30.3695E-09     99.9539E-06     99.9539E-06    -49.3875E-06    -49.5655E-06    -49.4765E-06    -49.4765E-06     99.9537E-06     94.5812E-09    -30.3695E-09     30.3695E-09     999.535E-03     999.951E-03     999.951E-03     1.01198E-03    -178.778E-06         1.00013    -333.595E-03     999.533E-03     416.990E-06     416.990E-06     999.950E-03     316.325E-06    -101.570E-06     101.570E-06
             264              0.              0.              0.              0.              0.              0.              0.              0.     762.122E-06    -74.3840E-06     123.697E-06     748.328E-06     99.9941E-06     99.9941E-06    -49.3125E-06    -49.6817E-06    -49.5182E-06    -49.4757E-06     99.9938E-06     18.4171E-09     16.8076E-09    -205.118E-09     99.9941E-06     99.9941E-06    -49.3125E-06    -49.6817E-06    -49.5182E-06    -49.4757E-06     99.9938E-06     18.4171E-09     16.8076E-09    -205.118E-09     999.944E-03     999.929E-03     999.929E-03     1.22271E-03    -1.24701E-03         1.00118    -333.302E-03     999.937E-03    -152.924E-06     130.833E-06     999.927E-03     61.5958E-06     56.2128E-06    -686.014E-06
             265              0.              0.              0.              0.              0.              0.              0.              0.     664.060E-06    -74.0345E-06    -123.900E-06     648.185E-06     100.111E-06     100.111E-06    -49.2398E-06    -49.8705E-06    -49.5001E-06    -49.6090E-06     100.110E-06    -51.4301E-09     2.42841E-09    -401.795E-09     100.111E-06     100.111E-06    -49.2398E-06    -49.8705E-06    -49.5001E-06    -49.6090E-06     100.110E-06    -51.4301E-09     2.42841E-09    -401.795E-09         1.00112         1.00103         1.00103     2.02507E-03    -2.19322E-03         1.00322    -333.620E-03         1.00110     284.123E-06    -444.528E-06         1.00102    -172.007E-06     8.12182E-06    -1.34380E-03
             266              0.              0.              0.              0.              0.              0.              0.              0.     657.030E-06    -74.1535E-06    -74.1535E-06     648.607E-06     100.093E-06     100.093E-06    -49.3719E-06    -49.7229E-06    -49.5471E-06    -49.5471E-06     100.092E-06     67.7096E-09     62.8265E-09     62.8265E-09     100.093E-06     100.093E-06    -49.3719E-06    -49.7229E-06    -49.5471E-06    -49.5471E-06     100.092E-06     67.7096E-09     62.8265E-09     62.8265E-09         1.00094         1.00007         1.00007     304.490E-06    -2.04310E-03         1.00211    -332.777E-03         1.00093    -867.054E-06    -867.054E-06         1.00007     226.454E-06     210.122E-06     210.122E-06
             267              0.              0.              0.              0.              0.              0.              0.              0.     653.152E-06    -74.1022E-06    -24.9346E-06     648.456E-06     100.073E-06     100.073E-06    -49.3571E-06    -49.7177E-06    -49.5194E-06    -49.5548E-06     100.073E-06    -67.5525E-09     8.31331E-09     22.9844E-09     100.073E-06     100.073E-06    -49.3571E-06    -49.7177E-06    -49.5194E-06    -49.5548E-06     100.073E-06    -67.5525E-09     8.31331E-09     22.9844E-09         1.00074     999.981E-03     999.981E-03     447.044E-06    -1.96473E-03         1.00195    -332.821E-03         1.00073    -638.827E-06    -875.450E-06     999.977E-03    -225.928E-06     27.8038E-06     76.8708E-06
             268              0.              0.              0.              0.              0.              0.              0.              0.     653.152E-06    -74.1022E-06     24.9346E-06     648.456E-06     100.073E-06     100.073E-06    -49.3571E-06    -49.7177E-06    -49.5194E-06    -49.5548E-06     100.073E-06     67.5525E-09     8.31331E-09    -22.9844E-09     100.073E-06     100.073E-06    -49.3571E-06    -49.7177E-06    -49.5194E-06    -49.5548E-06     100.073E-06     67.5525E-09     8.31331E-09    -22.9844E-09         1.00074     999.981E-03     999.981E-03     447.044E-06    -1.96473E-03         1.00195    -332.821E-03         1.00073    -638.827E-06    -875.450E-06     999.977E-03     225.928E-06     27.8038E-06    -76.8708E-06
             269              0.              0.              0.              0.              0.              0.              0.              0.     657.030E-06    -74.1535E-06     74.1535E-06     648.607E-06     100.093E-06     100.093E-06    -49.3719E-06    -49.7229E-06    -49.5471E-06    -49.5471E-06     100.092E-06    -67.7096E-09     62.8265E-09    -62.8265E-09     100.093E-06     100.093E-06    -49.3719E-06    -49.7229E-06    -49.5471E-06    -49.5471E-06     100.092E-06    -67.7096E-09     62.8265E-09    -62.8265E-09         1.00094         1.00007         1.00007     304.490E-06    -2.04310E-03         1.00211    -332.777E-03         1.00093    -867.054E-06    -867.054E-06         1.00007    -226.454E-06     210.122E-06    -210.122E-06
             270              0.              0.              0.              0.              0.              0.              0.              0.     664.060E-06    -74.0345E-06     123.900E-06     648.185E-06     100.111E-06     100.111E-06    -49.2398E-06    -49.8705E-06    -49.5001E-06    -49.6090E-06     100.110E-06     51.4301E-09     2.42841E-09     401.795E-09     100.111E-06     100.111E-06    -49.2398E-06    -49.8705E-06    -49.5001E-06    -49.6090E-06     100.110E-06     51.4301E-09     2.42841E-09     401.795E-09         1.00112         1.00103         1.00103     2.02507E-03    -2.19322E-03         1.00322    -333.620E-03         1.00110     284.123E-06    -444.528E-06         1.00102     172.007E-06     8.12182E-06     1.34380E-03
             271              0.              0.              0.              0.              0.              0.              0.              0.     567.135E-06    -74.8806E-06    -123.738E-06     548.383E-06     99.8385E-06     99.8385E-06    -48.8785E-06    -49.9644E-06    -49.5751E-06    -49.2642E-06     99.8349E-06    -20.0456E-09     478.982E-09     952.004E-09     99.8385E-06     99.8385E-06    -48.8785E-06    -49.9644E-06    -49.5751E-06    -49.2642E-06     99.8349E-06    -20.0456E-09     478.982E-09     952.004E-09     998.415E-03     997.457E-03     997.457E-03     2.69495E-03    -4.56872E-03         1.00203    -331.861E-03     998.351E-03    -1.96486E-03     114.929E-06     997.433E-03    -67.0421E-06     1.60195E-03     3.18396E-03
             272              0.              0.              0.              0.              0.              0.              0.              0.     557.965E-06    -74.6911E-06    -74.6911E-06     547.875E-06     99.8549E-06     99.8549E-06    -49.0805E-06    -49.7759E-06    -49.4276E-06    -49.4276E-06     99.8537E-06    -259.381E-09     341.341E-09     341.341E-09     99.8549E-06     99.8549E-06    -49.0805E-06    -49.7759E-06    -49.4276E-06    -49.4276E-06     99.8537E-06    -259.381E-09     341.341E-09     341.341E-09     998.561E-03     998.531E-03     998.531E-03     2.30768E-03    -2.34341E-03         1.00087    -332.832E-03     998.526E-03    -13.7387E-06    -13.7387E-06     998.523E-03    -867.497E-06     1.14161E-03     1.14161E-03
             273              0.              0.              0.              0.              0.              0.              0.              0.     553.770E-06    -74.6213E-06    -24.5429E-06     548.170E-06     100.156E-06     100.156E-06    -49.2705E-06    -49.8891E-06    -49.5250E-06    -49.6329E-06     100.154E-06    -16.1963E-09     308.602E-09     250.169E-09     100.156E-06     100.156E-06    -49.2705E-06    -49.8891E-06    -49.5250E-06    -49.6329E-06     100.154E-06    -16.1963E-09     308.602E-09     250.169E-09         1.00159     999.825E-03     999.825E-03     316.859E-06    -3.82092E-03         1.00365    -332.107E-03         1.00156    -1.38557E-03    -2.10736E-03     999.814E-03    -54.1683E-06     1.03211E-03     836.686E-06
             274              0.              0.              0.              0.              0.              0.              0.              0.     553.770E-06    -74.6213E-06     24.5429E-06     548.170E-06     100.156E-06     100.156E-06    -49.2705E-06    -49.8891E-06    -49.5250E-06    -49.6329E-06     100.154E-06     16.1963E-09     308.602E-09    -250.169E-09     100.156E-06     100.156E-06    -49.2705E-06    -49.8891E-06    -49.5250E-06    -49.6329E-06     100.154E-06     16.1963E-09     308.602E-09    -250.169E-09         1.00159     999.825E-03     999.825E-03     316.859E-06    -3.82092E-03         1.00365    -332.107E-03         1.00156    -1.38557E-03    -2.10736E-03     999.814E-03     54.1683E-06     1.03211E-03    -836.686E-06
             275              0.              0.              0.              0.              0.              0.              0.              0.     557.965E-06    -74.6911E-06     74.6911E-06     547.875E-06     99.8549E-06     99.8549E-06    -49.0805E-06    -49.7759E-06    -49.4276E-06    -49.4276E-06     99.8537E-06     259.381E-09     341.341E-09    -341.341E-09     99.8549E-06     99.8549E-06    -49.0805E-06    -49.7759E-06    -49.4276E-06    -49.4276E-06     99.8537E-06     259.381E-09     341.341E-09    -341.341E-09     998.561E-03     998.531E-03     998.531E-03     2.30768E-03    -2.34341E-03         1.00087    -332.832E-03     998.526E-03    -13.7387E-06    -13.7387E-06     998.523E-03     867.497E-06     1.14161E-03    -1.14161E-03
             276              0.              0.              0.              0.              0.              0.              0.              0.     567.135E-06    -74.8806E-06     123.738E-06     548.383E-06     99.8385E-06     99.8385E-06    -48.8785E-06    -49.9644E-06    -49.5751E-06    -49.2642E-06     99.8349E-06     20.0456E-09     478.982E-09    -952.004E-09     99.8385E-06     99.8385E-06    -48.8785E-06    -49.9644E-06    -49.5751E-06    -49.2642E-06     99.8349E-06     20.0456E-09     478.982E-09    -952.004E-09     998.415E-03     997.457E-03     997.457E-03     2.69495E-03    -4.56872E-03         1.00203    -331.861E-03     998.351E-03    -1.96486E-03     114.929E-06     997.433E-03     67.0421E-06     1.60195E-03    -3.18396E-03
             277              0.              0.              0.              0.              0.              0.              0.              0.     471.055E-06    -74.4518E-06    -124.789E-06     448.082E-06     99.7571E-06     99.7571E-06    -48.6861E-06    -50.0793E-06    -49.2781E-06    -49.4742E-06     99.7441E-06    -216.472E-09     1.29110E-06    -973.573E-09     99.7571E-06     99.7571E-06    -48.6861E-06    -50.0793E-06    -49.2781E-06    -49.4742E-06     99.7441E-06    -216.472E-09     1.29110E-06    -973.573E-09     997.623E-03     995.656E-03     995.656E-03     2.72515E-03    -6.59372E-03         1.00225    -330.596E-03     997.525E-03    -1.23495E-03    -2.54633E-03     995.569E-03    -723.988E-06     4.31805E-03    -3.25610E-03
             278              0.              0.              0.              0.              0.              0.              0.              0.     461.470E-06    -74.6235E-06    -74.6235E-06     449.240E-06     100.279E-06     100.279E-06    -49.2801E-06    -50.0143E-06    -49.6397E-06    -49.6397E-06     100.264E-06     155.104E-09     1.23140E-06     1.23140E-06     100.279E-06     100.279E-06    -49.2801E-06    -50.0143E-06    -49.6397E-06    -49.6397E-06     100.264E-06     155.104E-09     1.23140E-06     1.23140E-06         1.00287     996.906E-03     996.906E-03    -3.49175E-03    -8.40299E-03         1.00531    -328.337E-03         1.00283    -5.89688E-03    -5.89688E-03     996.805E-03     518.741E-06     4.11838E-03     4.11838E-03
             279              0.              0.              0.              0.              0.              0.              0.              0.     455.012E-06    -74.6069E-06    -25.7297E-06     448.115E-06     101.041E-06     101.041E-06    -49.3815E-06    -50.6719E-06    -49.7351E-06    -50.3063E-06     101.029E-06    -32.6045E-09     1.40289E-06     710.070E-09     101.041E-06     101.041E-06    -49.3815E-06    -50.6719E-06    -49.7351E-06    -50.3063E-06     101.029E-06    -32.6045E-09     1.40289E-06     710.070E-09         1.01053         1.00288         1.00288    -3.29314E-03    -11.9246E-03         1.01480    -329.220E-03         1.01041    -5.65799E-03    -9.47924E-03         1.00280    -109.045E-06     4.69195E-03     2.37481E-03
             280              0.              0.              0.              0.              0.              0.              0.              0.     455.012E-06    -74.6069E-06     25.7297E-06     448.115E-06     101.041E-06     101.041E-06    -49.3815E-06    -50.6719E-06    -49.7351E-06    -50.3063E-06     101.029E-06     32.6045E-09     1.40289E-06    -710.070E-09     101.041E-06     101.041E-06    -49.3815E-06    -50.6719E-06    -49.7351E-06    -50.3063E-06     101.029E-06     32.6045E-09     1.40289E-06    -710.070E-09         1.01053         1.00288         1.00288    -3.29314E-03    -11.9246E-03         1.01480    -329.220E-03         1.01041    -5.65799E-03    -9.47924E-03         1.00280     109.045E-06     4.69195E-03    -2.37481E-03
             281              0.              0.              0.              0.              0.              0.              0.              0.     461.470E-06    -74.6235E-06     74.6235E-06     449.240E-06     100.279E-06     100.279E-06    -49.2801E-06    -50.0143E-06    -49.6397E-06    -49.6397E-06     100.264E-06    -155.104E-09     1.23140E-06    -1.23140E-06     100.279E-06     100.279E-06    -49.2801E-06    -50.0143E-06    -49.6397E-06    -49.6397E-06     100.264E-06    -155.104E-09     1.23140E-06    -1.23140E-06         1.00287     996.906E-03     996.906E-03    -3.49175E-03    -8.40299E-03         1.00531    -328.337E-03         1.00283    -5.89688E-03    -5.89688E-03     996.805E-03    -518.741E-06     4.11838E-03    -4.11838E-03
             282              0.              0.              0.              0.              0.              0.              0.              0.     471.055E-06    -74.4518E-06     124.789E-06     448.082E-06     99.7571E-06     99.7571E-06    -48.6861E-06    -50.0793E-06    -49.2781E-06    -49.4742E-06     99.7441E-06     216.472E-09     1.29110E-06     973.573E-09     99.7571E-06     99.7571E-06    -48.6861E-06    -50.0793E-06    -49.2781E-06    -49.4742E-06     99.7441E-06     216.472E-09     1.29110E-06     973.573E-09     997.623E-03     995.656E-03     995.656E-03     2.72515E-03    -6.59372E-03         1.00225    -330.596E-03     997.525E-03    -1.23495E-03    -2.54633E-03     995.569E-03     723.988E-06     4.31805E-03     3.25610E-03
             283              0.              0.              0.              0.              0.              0.              0.              0.     379.608E-06    -77.4980E-06    -124.109E-06     350.276E-06     97.7504E-06     97.7504E-06    -46.4573E-06    -50.3353E-06    -49.2857E-06    -47.4371E-06     97.6806E-06     698.686E-09     3.51588E-06     4.37036E-06     97.7504E-06     97.7504E-06    -46.4573E-06    -50.3353E-06    -49.2857E-06    -47.4371E-06     97.6806E-06     698.686E-09     3.51588E-06     4.37036E-06     977.873E-03     970.983E-03     970.983E-03     6.38220E-03    -19.5572E-03     990.540E-03    -319.269E-03     976.964E-03    -12.5365E-03    -171.460E-06     970.516E-03     2.33674E-03     11.7588E-03     14.6166E-03
             284              0.              0.              0.              0.              0.              0.              0.              0.     363.885E-06    -77.1875E-06    -77.1875E-06     347.126E-06     99.6177E-06     99.6177E-06    -47.8040E-06    -50.8371E-06    -49.2982E-06    -49.2982E-06     99.5729E-06     17.0337E-09     3.14911E-06     3.14911E-06     99.6177E-06     99.6177E-06    -47.8040E-06    -50.8371E-06    -49.2982E-06    -49.2982E-06     99.5729E-06     17.0337E-09     3.14911E-06     3.14911E-06     996.493E-03     989.673E-03     989.673E-03     3.57479E-03    -16.7135E-03         1.00639    -325.512E-03     995.742E-03    -6.41941E-03    -6.41941E-03     989.374E-03     56.9689E-06     10.5322E-03     10.5322E-03
             285              0.              0.              0.              0.              0.              0.              0.              0.     355.302E-06    -77.5150E-06    -24.8379E-06     345.852E-06     102.012E-06     102.012E-06    -49.1095E-06    -51.9190E-06    -49.8895E-06    -51.0982E-06     101.972E-06     138.906E-09     3.84566E-06     1.90095E-06     102.012E-06     102.012E-06    -49.1095E-06    -51.9190E-06    -49.8895E-06    -51.0982E-06     101.972E-06     138.906E-09     3.84566E-06     1.90095E-06         1.02042         1.00812         1.00812    -2.72737E-03    -21.5198E-03         1.02964    -327.958E-03         1.01989    -7.94458E-03    -16.0293E-03         1.00785     464.570E-06     12.8617E-03     6.35769E-03
             286              0.              0.              0.              0.              0.              0.              0.              0.     355.302E-06    -77.5150E-06     24.8379E-06     345.852E-06     102.012E-06     102.012E-06    -49.1095E-06    -51.9190E-06    -49.8895E-06    -51.0982E-06     101.972E-06    -138.906E-09     3.84566E-06    -1.90095E-06     102.012E-06     102.012E-06    -49.1095E-06    -51.9190E-06    -49.8895E-06    -51.0982E-06     101.972E-06    -138.906E-09     3.84566E-06    -1.90095E-06         1.02042         1.00812         1.00812    -2.72737E-03    -21.5198E-03         1.02964    -327.958E-03         1.01989    -7.94458E-03    -16.0293E-03         1.00785    -464.570E-06     12.8617E-03    -6.35769E-03
             287              0.              0.              0.              0.              0.              0.              0.              0.     363.885E-06    -77.1875E-06     77.1875E-06     347.126E-06     99.6177E-06     99.6177E-06    -47.8040E-06    -50.8371E-06    -49.2982E-06    -49.2982E-06     99.5729E-06    -17.0337E-09     3.14911E-06    -3.14911E-06     99.6177E-06     99.6177E-06    -47.8040E-06    -50.8371E-06    -49.2982E-06    -49.2982E-06     99.5729E-06    -17.0337E-09     3.14911E-06    -3.14911E-06     996.493E-03     989.673E-03     989.673E-03     3.57479E-03    -16.7135E-03         1.00639    -325.512E-03     995.742E-03    -6.41941E-03    -6.41941E-03     989.374E-03    -56.9689E-06     10.5322E-03    -10.5322E-03
             288              0.              0.              0.              0.              0.              0.              0.              0.     379.608E-06    -77.4980E-06     124.109E-06     350.276E-06     97.7504E-06     97.7504E-06    -46.4573E-06    -50.3353E-06    -49.2857E-06    -47.4371E-06     97.6806E-06    -698.686E-09     3.51588E-06    -4.37036E-06     97.7504E-06     97.7504E-06    -46.4573E-06    -50.3353E-06    -49.2857E-06    -47.4371E-06     97.6806E-06    -698.686E-09     3.51588E-06    -4.37036E-06     977.873E-03     970.983E-03     970.983E-03     6.38220E-03    -19.5572E-03     990.540E-03    -319.269E-03     976.964E-03    -12.5365E-03    -171.460E-06     970.516E-03    -2.33674E-03     11.7588E-03    -14.6166E-03
             289              0.              0.              0.              0.              0.              0.              0.              0.     292.117E-06    -76.1449E-06    -127.229E-06     251.689E-06     95.9658E-06     95.9658E-06    -46.1501E-06    -48.8662E-06    -47.1727E-06    -47.6656E-06     95.7878E-06     757.992E-09     5.38974E-06    -3.02488E-06     95.9658E-06     95.9658E-06    -46.1501E-06    -48.8662E-06    -47.1727E-06    -47.6656E-06     95.7878E-06     757.992E-09     5.38974E-06    -3.02488E-06     959.839E-03     956.281E-03     956.281E-03     5.67271E-03    -12.4952E-03     968.776E-03    -316.486E-03     959.399E-03    -1.16746E-03    -4.46456E-03     955.090E-03     2.53509E-03     18.0259E-03    -10.1167E-03
             290              0.              0.              0.              0.              0.              0.              0.              0.     273.110E-06    -76.4975E-06    -76.4975E-06     250.769E-06     100.096E-06     100.096E-06    -48.1800E-06    -50.9633E-06    -49.5096E-06    -49.5096E-06     99.9720E-06     2.36957E-06     5.00756E-06     5.00756E-06     100.096E-06     100.096E-06    -48.1800E-06    -50.9633E-06    -49.5096E-06    -49.5096E-06     99.9720E-06     2.36957E-06     5.00756E-06     5.00756E-06         1.00128     985.027E-03     985.027E-03    -6.78774E-03    -25.4052E-03         1.01043    -317.611E-03         1.00081    -15.6811E-03    -15.6811E-03     984.196E-03     7.92497E-03     16.7477E-03     16.7477E-03
             291              0.              0.              0.              0.              0.              0.              0.              0.     257.875E-06    -78.5145E-06    -28.2578E-06     244.001E-06     104.434E-06     104.434E-06    -49.3299E-06    -54.1134E-06    -50.4556E-06    -52.7874E-06     104.234E-06     1.60627E-06     8.11394E-06     2.90619E-06     104.434E-06     104.434E-06    -49.3299E-06    -54.1134E-06    -50.4556E-06    -52.7874E-06     104.234E-06     1.60627E-06     8.11394E-06     2.90619E-06         1.04493         1.02668         1.02668    -1.83742E-03    -33.8341E-03         1.06052    -330.338E-03         1.04370    -9.36738E-03    -24.9649E-03         1.02535     5.37214E-03     27.1369E-03     9.71971E-03
             292              0.              0.              0.              0.              0.              0.              0.              0.     257.875E-06    -78.5145E-06     28.2578E-06     244.001E-06     104.434E-06     104.434E-06    -49.3299E-06    -54.1134E-06    -50.4556E-06    -52.7874E-06     104.234E-06    -1.60627E-06     8.11394E-06    -2.90619E-06     104.434E-06     104.434E-06    -49.3299E-06    -54.1134E-06    -50.4556E-06    -52.7874E-06     104.234E-06    -1.60627E-06     8.11394E-06    -2.90619E-06         1.04493         1.02668         1.02668    -1.83742E-03    -33.8341E-03         1.06052    -330.338E-03         1.04370    -9.36738E-03    -24.9649E-03         1.02535    -5.37214E-03     27.1369E-03    -9.71971E-03
             293              0.              0.              0.              0.              0.              0.              0.              0.     273.110E-06    -76.4975E-06     76.4975E-06     250.769E-06     100.096E-06     100.096E-06    -48.1800E-06    -50.9633E-06    -49.5096E-06    -49.5096E-06     99.9720E-06    -2.36957E-06     5.00756E-06    -5.00756E-06     100.096E-06     100.096E-06    -48.1800E-06    -50.9633E-06    -49.5096E-06    -49.5096E-06     99.9720E-06    -2.36957E-06     5.00756E-06    -5.00756E-06         1.00128     985.027E-03     985.027E-03    -6.78774E-03    -25.4052E-03         1.01043    -317.611E-03         1.00081    -15.6811E-03    -15.6811E-03     984.196E-03    -7.92497E-03     16.7477E-03    -16.7477E-03
             294              0.              0.              0.              0.              0.              0.              0.              0.     292.117E-06    -76.1449E-06     127.229E-06     251.689E-06     95.9658E-06     95.9658E-06    -46.1501E-06    -48.8662E-06    -47.1727E-06    -47.6656E-06     95.7878E-06    -757.992E-09     5.38974E-06     3.02488E-06     95.9658E-06     95.9658E-06    -46.1501E-06    -48.8662E-06    -47.1727E-06    -47.6656E-06     95.7878E-06    -757.992E-09     5.38974E-06     3.02488E-06     959.839E-03     956.281E-03     956.281E-03     5.67271E-03    -12.4952E-03     968.776E-03    -316.486E-03     959.399E-03    -1.16746E-03    -4.46456E-03     955.090E-03    -2.53509E-03     18.0259E-03     10.1167E-03
             295              0.              0.              0.              0.              0.              0.              0.              0.     216.634E-06    -79.0796E-06    -116.220E-06     164.832E-06     89.7273E-06     89.7273E-06    -37.8197E-06    -51.0472E-06    -47.3903E-06    -40.6521E-06     88.9028E-06     6.75306E-06     1.99279E-06     12.9398E-06     89.7273E-06     89.7273E-06    -37.8197E-06    -51.0472E-06    -47.3903E-06    -40.6521E-06     88.9028E-06     6.75306E-06     1.99279E-06     12.9398E-06     901.345E-03     885.073E-03     885.073E-03     31.9156E-03    -56.5624E-03     941.635E-03    -286.809E-03     889.359E-03    -32.1018E-03     12.9701E-03     879.558E-03     22.5855E-03     6.66485E-03     43.2769E-03
             296              0.              0.              0.              0.              0.              0.              0.              0.     185.185E-06    -79.5148E-06    -79.5148E-06     147.134E-06     101.777E-06     101.777E-06    -44.2876E-06    -56.5023E-06    -49.9919E-06    -49.9919E-06     100.971E-06     5.49334E-06     2.30294E-06     2.30294E-06     101.777E-06     101.777E-06    -44.2876E-06    -56.5023E-06    -49.9919E-06    -49.9919E-06     100.971E-06     5.49334E-06     2.30294E-06     2.30294E-06         1.02132         1.00759         1.00759     30.5704E-03    -51.1331E-03         1.05872    -329.009E-03         1.01089    -7.58557E-03    -7.58557E-03         1.00220     18.3724E-03     7.70215E-03     7.70215E-03
             297              0.              0.              0.              0.              0.              0.              0.              0.     162.397E-06    -84.5729E-06    -23.8820E-06     136.565E-06     102.976E-06     102.976E-06    -45.4956E-06    -56.3644E-06    -49.5594E-06    -51.7406E-06     102.416E-06     2.77315E-06     3.78451E-06    -663.198E-09     102.976E-06     102.976E-06    -45.4956E-06    -56.3644E-06    -49.5594E-06    -51.7406E-06     102.416E-06     2.77315E-06     3.78451E-06    -663.198E-09         1.03161         1.05817         1.05817     65.0483E-03    -7.65280E-03         1.06582    -371.854E-03         1.02515     37.8662E-03     23.2758E-03         1.05442     9.27475E-03     12.6572E-03    -2.21805E-03
             298              0.              0.              0.              0.              0.              0.              0.              0.     162.397E-06    -84.5729E-06     23.8820E-06     136.565E-06     102.976E-06     102.976E-06    -45.4956E-06    -56.3644E-06    -49.5594E-06    -51.7406E-06     102.416E-06    -2.77315E-06     3.78451E-06     663.198E-09     102.976E-06     102.976E-06    -45.4956E-06    -56.3644E-06    -49.5594E-06    -51.7406E-06     102.416E-06    -2.77315E-06     3.78451E-06     663.198E-09         1.03161         1.05817         1.05817     65.0483E-03    -7.65280E-03         1.06582    -371.854E-03         1.02515     37.8662E-03     23.2758E-03         1.05442    -9.27475E-03     12.6572E-03     2.21805E-03
             299              0.              0.              0.              0.              0.              0.              0.              0.     185.185E-06    -79.5148E-06     79.5148E-06     147.134E-06     101.777E-06     101.777E-06    -44.2876E-06    -56.5023E-06    -49.9919E-06    -49.9919E-06     100.971E-06    -5.49334E-06     2.30294E-06    -2.30294E-06     101.777E-06     101.777E-06    -44.2876E-06    -56.5023E-06    -49.9919E-06    -49.9919E-06     100.971E-06    -5.49334E-06     2.30294E-06    -2.30294E-06         1.02132         1.00759         1.00759     30.5704E-03    -51.1331E-03         1.05872    -329.009E-03         1.01089    -7.58557E-03    -7.58557E-03         1.00220    -18.3724E-03     7.70215E-03    -7.70215E-03
             300              0.              0.              0.              0.              0.              0.              0.              0.     216.634E-06    -79.0796E-06     116.220E-06     164.832E-06     89.7273E-06     89.7273E-06    -37.8197E-06    -51.0472E-06    -47.3903E-06    -40.6521E-06     88.9028E-06    -6.75306E-06     1.99279E-06    -12.9398E-06     89.7273E-06     89.7273E-06    -37.8197E-06    -51.0472E-06    -47.3903E-06    -40.6521E-06     88.9028E-06    -6.75306E-06     1.99279E-06    -12.9398E-06     901.345E-03     885.073E-03     885.073E-03     31.9156E-03    -56.5624E-03     941.635E-03    -286.809E-03     889.359E-03    -32.1018E-03     12.9701E-03     879.558E-03    -22.5855E-03     6.66485E-03    -43.2769E-03
             301              0.              0.              0.              0.              0.              0.              0.              0.     144.719E-06    -52.2767E-06    -117.712E-06     65.9898E-06     103.209E-06     103.209E-06    -39.4514E-06    -62.3625E-06    -38.1586E-06    -53.8691E-06     93.4226E-06     4.25267E-06    -26.1910E-06    -33.3020E-06     103.209E-06     103.209E-06    -39.4514E-06    -62.3625E-06    -38.1586E-06    -53.8691E-06     93.4226E-06     4.25267E-06    -26.1910E-06    -33.3020E-06         1.04266         1.15225         1.15225     197.995E-03     44.7433E-03         1.10750    -464.994E-03         1.00592     206.643E-03     101.556E-03         1.08678     14.2230E-03    -87.5955E-03    -111.378E-03
             302              0.              0.              0.              0.              0.              0.              0.              0.     85.3186E-06    -52.8362E-06    -52.8362E-06     41.1818E-06     88.4505E-06     88.4505E-06    -36.1591E-06    -50.8013E-06    -40.9172E-06    -40.9172E-06     83.3245E-06     4.52451E-06    -26.3054E-06    -26.3054E-06     88.4505E-06     88.4505E-06    -36.1591E-06    -50.8013E-06    -40.9172E-06    -40.9172E-06     83.3245E-06     4.52451E-06    -26.3054E-06    -26.3054E-06     888.805E-03         1.08500         1.08500     251.487E-03     153.546E-03     931.450E-03    -496.676E-03     869.363E-03     219.660E-03     219.660E-03         1.05071     15.1321E-03    -87.9780E-03    -87.9780E-03
             303              0.              0.              0.              0.              0.              0.              0.              0.     70.8647E-06    -56.8012E-06    -16.3623E-06     39.0858E-06     78.6004E-06     78.6004E-06    -28.0832E-06    -48.9114E-06    -45.5354E-06    -27.8702E-06     75.0114E-06     2.57655E-06    -29.3772E-06    -10.8930E-06     78.6004E-06     78.6004E-06    -28.0832E-06    -48.9114E-06    -45.5354E-06    -27.8702E-06     75.0114E-06     2.57655E-06    -29.3772E-06    -10.8930E-06     795.706E-03         1.05743         1.05743     343.830E-03     204.511E-03     852.922E-03    -535.258E-03     756.061E-03     227.093E-03     345.255E-03         1.03343     8.61723E-03    -98.2515E-03    -36.4315E-03
             304              0.              0.              0.              0.              0.              0.              0.              0.     70.8647E-06    -56.8012E-06     16.3623E-06     39.0858E-06     78.6004E-06     78.6004E-06    -28.0832E-06    -48.9114E-06    -45.5354E-06    -27.8702E-06     75.0114E-06    -2.57655E-06    -29.3772E-06     10.8930E-06     78.6004E-06     78.6004E-06    -28.0832E-06    -48.9114E-06    -45.5354E-06    -27.8702E-06     75.0114E-06    -2.57655E-06    -29.3772E-06     10.8930E-06     795.706E-03         1.05743         1.05743     343.830E-03     204.511E-03     852.922E-03    -535.258E-03     756.061E-03     227.093E-03     345.255E-03         1.03343    -8.61723E-03    -98.2515E-03     36.4315E-03
             305              0.              0.              0.              0.              0.              0.              0.              0.     85.3186E-06    -52.8362E-06     52.8362E-06     41.1818E-06     88.4505E-06     88.4505E-06    -36.1591E-06    -50.8013E-06    -40.9172E-06    -40.9172E-06     83.3245E-06    -4.52451E-06    -26.3054E-06     26.3054E-06     88.4505E-06     88.4505E-06    -36.1591E-06    -50.8013E-06    -40.9172E-06    -40.9172E-06     83.3245E-06    -4.52451E-06    -26.3054E-06     26.3054E-06     888.805E-03         1.08500         1.08500     251.487E-03     153.546E-03     931.450E-03    -496.676E-03     869.363E-03     219.660E-03     219.660E-03         1.05071    -15.1321E-03    -87.9780E-03     87.9780E-03
             306              0.              0.              0.              0.              0.              0.              0.              0.     144.719E-06    -52.2767E-06     117.712E-06     65.9898E-06     103.209E-06     103.209E-06    -39.4514E-06    -62.3625E-06    -38.1586E-06    -53.8691E-06     93.4226E-06    -4.25267E-06    -26.1910E-06     33.3020E-06     103.209E-06     103.209E-06    -39.4514E-06    -62.3625E-06    -38.1586E-06    -53.8691E-06     93.4226E-06    -4.25267E-06    -26.1910E-06     33.3020E-06         1.04266         1.15225         1.15225     197.995E-03     44.7433E-03         1.10750    -464.994E-03         1.00592     206.643E-03     101.556E-03         1.08678    -14.2230E-03    -87.5955E-03     111.378E-03
             307     750.615E-03     84.5540E-03     388.760E-03    -636.506E-03     750.615E-03     84.5540E-03     388.760E-03    -636.506E-03              0.    -84.5540E-39    -388.760E-39     636.506E-39     84.0405E-06     84.0405E-06    -21.3139E-06    -60.6786E-06    -21.3139E-06    -21.3139E-06     44.6758E-06     36.0121E-21    -52.2767E-06    -117.712E-06     84.0405E-06     84.0405E-06    -21.3139E-06    -60.6786E-06    -21.3139E-06    -21.3139E-06     44.6758E-06     36.0121E-21    -52.2767E-06    -117.712E-06     866.895E-03         1.24024         1.24024     535.527E-03     272.218E-03     968.021E-03    -682.661E-03     768.898E-03     535.527E-03     535.527E-03     976.930E-03     120.590E-18    -174.839E-03    -393.686E-03
             308     861.742E-03     167.883E-03     167.883E-03    -828.390E-03     861.742E-03     167.883E-03     167.883E-03    -828.390E-03              0.    -167.883E-39    -167.883E-39     828.390E-39     50.1647E-06     50.1647E-06    -13.0855E-06    -35.1539E-06    -13.0855E-06    -13.0855E-06     28.0963E-06    -9.76073E-21    -52.8362E-06    -52.8362E-06     50.1647E-06     50.1647E-06    -13.0855E-06    -35.1539E-06    -13.0855E-06    -13.0855E-06     28.0963E-06    -9.76073E-21    -52.8362E-06    -52.8362E-06     513.067E-03     973.025E-03     973.025E-03     549.947E-03     402.332E-03     570.693E-03    -641.768E-03     461.541E-03     549.947E-03     549.947E-03     825.410E-03    -32.4719E-18    -176.710E-03    -176.710E-03
             309     844.425E-03     176.806E-03     117.418E-03    -817.317E-03     844.425E-03     176.806E-03     117.418E-03    -817.317E-03              0.    -176.806E-39    -117.418E-39     817.317E-39     42.6046E-06     42.6046E-06    -12.3706E-06    -28.2601E-06    -12.3706E-06    -12.3706E-06     26.7152E-06     1.84317E-21    -56.8012E-06    -16.3623E-06     42.6046E-06     42.6046E-06    -12.3706E-06    -28.2601E-06    -12.3706E-06    -12.3706E-06     26.7152E-06     1.84317E-21    -56.8012E-06    -16.3623E-06     430.817E-03     938.554E-03     938.554E-03     570.827E-03     464.543E-03     474.011E-03    -657.975E-03     399.691E-03     570.827E-03     570.827E-03     832.270E-03     6.91518E-18    -189.971E-03    -54.7233E-03
             310     844.425E-03     176.806E-03    -117.418E-03    -817.317E-03     844.425E-03     176.806E-03    -117.418E-03    -817.317E-03              0.    -176.806E-39     117.418E-39     817.317E-39     42.6046E-06     42.6046E-06    -12.3706E-06    -28.2601E-06    -12.3706E-06    -12.3706E-06     26.7152E-06    -4.47836E-21    -56.8012E-06     16.3623E-06     42.6046E-06     42.6046E-06    -12.3706E-06    -28.2601E-06    -12.3706E-06    -12.3706E-06     26.7152E-06    -4.47836E-21    -56.8012E-06     16.3623E-06     430.817E-03     938.554E-03     938.554E-03     570.827E-03     464.543E-03     474.011E-03    -657.975E-03     399.691E-03     570.827E-03     570.827E-03     832.270E-03    -15.7548E-18    -189.971E-03     54.7233E-03
             311     861.742E-03     167.883E-03    -167.883E-03    -828.390E-03     861.742E-03     167.883E-03    -167.883E-03    -828.390E-03              0.    -167.883E-39     167.883E-39     828.390E-39     50.1647E-06     50.1647E-06    -13.0855E-06    -35.1539E-06    -13.0855E-06    -13.0855E-06     28.0963E-06    -1.38966E-21    -52.8362E-06     52.8362E-06     50.1647E-06     50.1647E-06    -13.0855E-06    -35.1539E-06    -13.0855E-06    -13.0855E-06     28.0963E-06    -1.38966E-21    -52.8362E-06     52.8362E-06     513.067E-03     973.025E-03     973.025E-03     549.947E-03     402.332E-03     570.693E-03    -641.768E-03     461.541E-03     549.947E-03     549.947E-03     825.410E-03    -4.36391E-18    -176.710E-03     176.710E-03
             312     750.615E-03     84.5540E-03    -388.760E-03    -636.506E-03     750.615E-03     84.5540E-03    -388.760E-03    -636.506E-03              0.    -84.5540E-39     388.760E-39     636.506E-39     84.0405E-06     84.0405E-06    -21.3139E-06    -60.6786E-06    -21.3139E-06    -21.3139E-06     44.6758E-06    -2.59404E-21    -52.2767E-06     117.712E-06     84.0405E-06     84.0405E-06    -21.3139E-06    -60.6786E-06    -21.3139E-06    -21.3139E-06     44.6758E-06    -2.59404E-21    -52.2767E-06     117.712E-06     866.895E-03         1.24024         1.24024     535.527E-03     272.218E-03     968.021E-03    -682.661E-03     768.898E-03     535.527E-03     535.527E-03     976.930E-03    -8.02310E-18    -174.839E-03     393.686E-03
             313              0.              0.              0.              0.              0.              0.              0.              0.     2.45159E-03    -24.7501E-06    -123.750E-06     2.44834E-03    100.0000E-06    100.0000E-06    -49.4999E-06    -49.5001E-06    -49.5000E-06    -49.5000E-06    100.0000E-06    -84.5038E-12    -180.496E-12    -37.8967E-12    100.0000E-06    100.0000E-06    -49.4999E-06    -49.5001E-06    -49.5000E-06    -49.5000E-06    100.0000E-06    -84.5038E-12    -180.496E-12    -37.8967E-12              1.              1.              1.     693.567E-09    -610.208E-09         1.00000    -333.333E-03              1.     120.777E-09    -37.4175E-09              1.    -282.621E-09    -603.666E-09    -126.745E-09
             314              0.              0.              0.              0.              0.              0.              0.              0.     2.44959E-03    -24.7500E-06    -74.2500E-06     2.44834E-03     100.000E-06     100.000E-06    -49.5000E-06    -49.5000E-06    -49.5000E-06    -49.5000E-06     100.000E-06    -53.0406E-12     31.5016E-12     22.0223E-12     100.000E-06     100.000E-06    -49.5000E-06    -49.5000E-06    -49.5000E-06    -49.5000E-06     100.000E-06    -53.0406E-12     31.5016E-12     22.0223E-12              1.              1.              1.     265.313E-09    -294.435E-09         1.00000    -333.333E-03         1.00000    -16.7077E-09    -12.4149E-09              1.    -177.393E-09     105.357E-09     73.6533E-09
             315              0.              0.              0.              0.              0.              0.              0.              0.     2.44859E-03    -24.7500E-06    -24.7500E-06     2.44834E-03    100.0000E-06    100.0000E-06    -49.5000E-06    -49.5000E-06    -49.5000E-06    -49.5000E-06    100.0000E-06     26.8074E-12    -24.5909E-12    -24.5909E-12    100.0000E-06    100.0000E-06    -49.5000E-06    -49.5000E-06    -49.5000E-06    -49.5000E-06    100.0000E-06     26.8074E-12    -24.5909E-12    -24.5909E-12              1.              1.              1.     144.037E-09    -125.308E-09         1.00000    -333.333E-03              1.     9.36413E-09     9.36421E-09              1.     89.6570E-09    -82.2437E-09    -82.2437E-09
             316              0.              0.              0.              0.              0.              0.              0.              0.     2.44859E-03    -24.7500E-06     24.7500E-06     2.44834E-03    100.0000E-06    100.0000E-06    -49.5000E-06    -49.5000E-06    -49.5000E-06    -49.5000E-06    100.0000E-06    -26.8074E-12    -24.5909E-12     24.5909E-12    100.0000E-06    100.0000E-06    -49.5000E-06    -49.5000E-06    -49.5000E-06    -49.5000E-06    100.0000E-06    -26.8074E-12    -24.5909E-12     24.5909E-12              1.              1.              1.     144.025E-09    -125.297E-09         1.00000    -333.333E-03              1.     9.36399E-09     9.36414E-09              1.    -89.6568E-09    -82.2438E-09     82.2437E-09
             317              0.              0.              0.              0.              0.              0.              0.              0.     2.44959E-03    -24.7500E-06     74.2500E-06     2.44834E-03     100.000E-06     100.000E-06    -49.5000E-06    -49.5000E-06    -49.5000E-06    -49.5000E-06     100.000E-06     53.0406E-12     31.5016E-12    -22.0223E-12     100.000E-06     100.000E-06    -49.5000E-06    -49.5000E-06    -49.5000E-06    -49.5000E-06     100.000E-06     53.0406E-12     31.5016E-12    -22.0223E-12              1.              1.              1.     265.323E-09    -294.446E-09         1.00000    -333.333E-03         1.00000    -16.7076E-09    -12.4150E-09              1.     177.393E-09     105.357E-09    -73.6533E-09
             318              0.              0.              0.              0.              0.              0.              0.              0.     2.45159E-03    -24.7501E-06     123.750E-06     2.44834E-03    100.0000E-06    100.0000E-06    -49.4999E-06    -49.5001E-06    -49.5000E-06    -49.5000E-06    100.0000E-06     84.5037E-12    -180.496E-12     37.8967E-12    100.0000E-06    100.0000E-06    -49.4999E-06    -49.5001E-06    -49.5000E-06    -49.5000E-06    100.0000E-06     84.5037E-12    -180.496E-12     37.8967E-12              1.              1.              1.     693.567E-09    -610.208E-09         1.00000    -333.333E-03              1.     120.776E-09    -37.4175E-09              1.     282.621E-09    -603.666E-09     126.745E-09
             319              0.              0.              0.              0.              0.              0.              0.              0.     2.35173E-03    -24.7499E-06    -123.750E-06     2.34834E-03    100.0000E-06    100.0000E-06    -49.4999E-06    -49.5001E-06    -49.5000E-06    -49.5000E-06    100.0000E-06     95.2928E-12     4.44773E-12     22.0411E-12    100.0000E-06    100.0000E-06    -49.4999E-06    -49.5001E-06    -49.5000E-06    -49.5000E-06    100.0000E-06     95.2928E-12     4.44773E-12     22.0411E-12    1000.000E-03    1000.000E-03    1000.000E-03     717.271E-09    -775.718E-09         1.00000    -333.333E-03    1000.000E-03    -120.681E-09     62.2345E-09    1000.000E-03     318.705E-09     14.8753E-09     73.7161E-09
             320              0.              0.              0.              0.              0.              0.              0.              0.     2.34964E-03    -24.7500E-06    -74.2500E-06     2.34834E-03    100.0000E-06    100.0000E-06    -49.5000E-06    -49.5000E-06    -49.5000E-06    -49.5000E-06    100.0000E-06     60.1341E-12    -278.774E-15     2.51881E-12    100.0000E-06    100.0000E-06    -49.5000E-06    -49.5000E-06    -49.5000E-06    -49.5000E-06    100.0000E-06     60.1341E-12    -278.774E-15     2.51881E-12              1.              1.              1.     327.254E-09    -300.891E-09         1.00000    -333.333E-03    1000.000E-03     14.0185E-09     12.3441E-09              1.     201.117E-09    -932.354E-12     8.42412E-09
             321              0.              0.              0.              0.              0.              0.              0.              0.     2.34860E-03    -24.7500E-06    -24.7500E-06     2.34834E-03     100.000E-06     100.000E-06    -49.5000E-06    -49.5000E-06    -49.5000E-06    -49.5000E-06     100.000E-06    -29.7448E-12     1.38245E-12     1.38247E-12     100.000E-06     100.000E-06    -49.5000E-06    -49.5000E-06    -49.5000E-06    -49.5000E-06     100.000E-06    -29.7448E-12     1.38245E-12     1.38247E-12              1.              1.              1.     143.570E-09    -163.128E-09         1.00000    -333.333E-03              1.    -9.77874E-09    -9.77865E-09              1.    -99.4809E-09     4.62358E-09     4.62364E-09
             322              0.              0.              0.              0.              0.              0.              0.              0.     2.34860E-03    -24.7500E-06     24.7500E-06     2.34834E-03     100.000E-06     100.000E-06    -49.5000E-06    -49.5000E-06    -49.5000E-06    -49.5000E-06     100.000E-06     29.7448E-12     1.38246E-12    -1.38248E-12     100.000E-06     100.000E-06    -49.5000E-06    -49.5000E-06    -49.5000E-06    -49.5000E-06     100.000E-06     29.7448E-12     1.38246E-12    -1.38248E-12              1.              1.              1.     143.546E-09    -163.103E-09         1.00000    -333.333E-03              1.    -9.77849E-09    -9.77846E-09              1.     99.4810E-09     4.62363E-09    -4.62369E-09
             323              0.              0.              0.              0.              0.              0.              0.              0.     2.34964E-03    -24.7500E-06     74.2500E-06     2.34834E-03    100.0000E-06    100.0000E-06    -49.5000E-06    -49.5000E-06    -49.5000E-06    -49.5000E-06    100.0000E-06    -60.1341E-12    -278.813E-15    -2.51884E-12    100.0000E-06    100.0000E-06    -49.5000E-06    -49.5000E-06    -49.5000E-06    -49.5000E-06    100.0000E-06    -60.1341E-12    -278.813E-15    -2.51884E-12              1.              1.              1.     327.204E-09    -300.842E-09         1.00000    -333.333E-03    1000.000E-03     14.0184E-09     12.3439E-09              1.    -201.117E-09    -932.483E-12    -8.42422E-09
             324              0.              0.              0.              0.              0.              0.              0.              0.     2.35173E-03    -24.7499E-06     123.750E-06     2.34834E-03    100.0000E-06    100.0000E-06    -49.4999E-06    -49.5001E-06    -49.5000E-06    -49.5000E-06    100.0000E-06    -95.2928E-12     4.44768E-12    -22.0411E-12    100.0000E-06    100.0000E-06    -49.4999E-06    -49.5001E-06    -49.5000E-06    -49.5000E-06    100.0000E-06    -95.2928E-12     4.44768E-12    -22.0411E-12    1000.000E-03    1000.000E-03    1000.000E-03     717.279E-09    -775.726E-09         1.00000    -333.333E-03    1000.000E-03    -120.681E-09     62.2346E-09    1000.000E-03    -318.705E-09     14.8752E-09    -73.7161E-09
             325              0.              0.              0.              0.              0.              0.              0.              0.     2.25188E-03    -24.7501E-06    -123.750E-06     2.24834E-03     100.000E-06     100.000E-06    -49.4999E-06    -49.5001E-06    -49.5000E-06    -49.5000E-06     100.000E-06    -122.823E-12    -5.63886E-12    -48.4715E-12     100.000E-06     100.000E-06    -49.4999E-06    -49.5001E-06    -49.5000E-06    -49.5000E-06     100.000E-06    -122.823E-12    -5.63886E-12    -48.4715E-12              1.              1.              1.     1.03234E-06    -930.170E-09         1.00000    -333.333E-03              1.     185.105E-09    -82.9329E-09              1.    -410.780E-09    -18.8591E-09    -162.112E-09
             326              0.              0.              0.              0.              0.              0.              0.              0.     2.24970E-03    -24.7500E-06    -74.2500E-06     2.24834E-03     100.000E-06     100.000E-06    -49.4999E-06    -49.5001E-06    -49.5000E-06    -49.5000E-06     100.000E-06    -78.1730E-12     2.29527E-12    -5.36170E-12     100.000E-06     100.000E-06    -49.4999E-06    -49.5001E-06    -49.5000E-06    -49.5000E-06     100.000E-06    -78.1730E-12     2.29527E-12    -5.36170E-12              1.              1.              1.     384.598E-09    -427.145E-09         1.00000    -333.333E-03              1.    -20.9997E-09    -21.5465E-09              1.    -261.448E-09     7.67650E-09    -17.9321E-09
             327              0.              0.              0.              0.              0.              0.              0.              0.     2.24861E-03    -24.7500E-06    -24.7500E-06     2.24834E-03    100.0000E-06    100.0000E-06    -49.5000E-06    -49.5000E-06    -49.5000E-06    -49.5000E-06    100.0000E-06     38.1095E-12    -2.67668E-12    -2.67668E-12    100.0000E-06    100.0000E-06    -49.5000E-06    -49.5000E-06    -49.5000E-06    -49.5000E-06    100.0000E-06     38.1095E-12    -2.67668E-12    -2.67668E-12              1.              1.              1.     221.462E-09    -189.850E-09         1.00000    -333.333E-03              1.     15.8064E-09     15.8065E-09              1.     127.457E-09    -8.95211E-09    -8.95210E-09
             328              0.              0.              0.              0.              0.              0.              0.              0.     2.24861E-03    -24.7500E-06     24.7500E-06     2.24834E-03    100.0000E-06    100.0000E-06    -49.5000E-06    -49.5000E-06    -49.5000E-06    -49.5000E-06    100.0000E-06    -38.1095E-12    -2.67667E-12     2.67665E-12    100.0000E-06    100.0000E-06    -49.5000E-06    -49.5000E-06    -49.5000E-06    -49.5000E-06    100.0000E-06    -38.1095E-12    -2.67667E-12     2.67665E-12              1.              1.              1.     221.465E-09    -189.852E-09         1.00000    -333.333E-03              1.     15.8067E-09     15.8067E-09              1.    -127.457E-09    -8.95208E-09     8.95200E-09
             329              0.              0.              0.              0.              0.              0.              0.              0.     2.24970E-03    -24.7500E-06     74.2500E-06     2.24834E-03     100.000E-06     100.000E-06    -49.4999E-06    -49.5001E-06    -49.5000E-06    -49.5000E-06     100.000E-06     78.1730E-12     2.29522E-12     5.36169E-12     100.000E-06     100.000E-06    -49.4999E-06    -49.5001E-06    -49.5000E-06    -49.5000E-06     100.000E-06     78.1730E-12     2.29522E-12     5.36169E-12              1.              1.              1.     384.588E-09    -427.134E-09         1.00000    -333.333E-03              1.    -20.9998E-09    -21.5465E-09              1.     261.448E-09     7.67632E-09     17.9321E-09
             330              0.              0.              0.              0.              0.              0.              0.              0.     2.25188E-03    -24.7501E-06     123.750E-06     2.24834E-03     100.000E-06     100.000E-06    -49.4999E-06    -49.5001E-06    -49.5000E-06    -49.5000E-06     100.000E-06     122.823E-12    -5.63893E-12     48.4714E-12     100.000E-06     100.000E-06    -49.4999E-06    -49.5001E-06    -49.5000E-06    -49.5000E-06     100.000E-06     122.823E-12    -5.63893E-12     48.4714E-12              1.              1.              1.     1.03235E-06    -930.179E-09         1.00000    -333.333E-03              1.     185.105E-09    -82.9328E-09              1.     410.780E-09    -18.8593E-09     162.112E-09
             331              0.              0.              0.              0.              0.              0.              0.              0.     2.15204E-03    -24.7498E-06    -123.750E-06     2.14834E-03    100.0000E-06    100.0000E-06    -49.4998E-06    -49.5002E-06    -49.5000E-06    -49.5000E-06    100.0000E-06     176.350E-12     10.9995E-12     89.4973E-12    100.0000E-06    100.0000E-06    -49.4998E-06    -49.5002E-06    -49.5000E-06    -49.5000E-06    100.0000E-06     176.350E-12     10.9995E-12     89.4973E-12              1.    1000.000E-03    1000.000E-03     1.35816E-06    -1.52488E-06         1.00000    -333.333E-03              1.    -297.024E-09     130.313E-09    1000.000E-03     589.801E-09     36.7878E-09     299.322E-09
             332              0.              0.              0.              0.              0.              0.              0.              0.     2.14976E-03    -24.7500E-06    -74.2500E-06     2.14834E-03    100.0000E-06    100.0000E-06    -49.4999E-06    -49.5001E-06    -49.5000E-06    -49.5000E-06    100.0000E-06     113.074E-12    -3.80573E-12     9.61814E-12    100.0000E-06    100.0000E-06    -49.4999E-06    -49.5001E-06    -49.5000E-06    -49.5000E-06    100.0000E-06     113.074E-12    -3.80573E-12     9.61814E-12    1000.000E-03    1000.000E-03    1000.000E-03     615.894E-09    -545.391E-09         1.00000    -333.333E-03    1000.000E-03     36.3923E-09     34.1110E-09    1000.000E-03     378.175E-09    -12.7282E-09     32.1677E-09
             333              0.              0.              0.              0.              0.              0.              0.              0.     2.14862E-03    -24.7500E-06    -24.7500E-06     2.14834E-03     100.000E-06     100.000E-06    -49.5000E-06    -49.5000E-06    -49.5000E-06    -49.5000E-06     100.000E-06    -53.1028E-12     5.13565E-12     5.13565E-12     100.000E-06     100.000E-06    -49.5000E-06    -49.5000E-06    -49.5000E-06    -49.5000E-06     100.000E-06    -53.1028E-12     5.13565E-12     5.13565E-12              1.              1.              1.     281.566E-09    -333.797E-09         1.00000    -333.333E-03              1.    -26.1155E-09    -26.1155E-09              1.    -177.601E-09     17.1761E-09     17.1761E-09
             334              0.              0.              0.              0.              0.              0.              0.              0.     2.14862E-03    -24.7500E-06     24.7500E-06     2.14834E-03     100.000E-06     100.000E-06    -49.5000E-06    -49.5000E-06    -49.5000E-06    -49.5000E-06     100.000E-06     53.1028E-12     5.13562E-12    -5.13567E-12     100.000E-06     100.000E-06    -49.5000E-06    -49.5000E-06    -49.5000E-06    -49.5000E-06     100.000E-06     53.1028E-12     5.13562E-12    -5.13567E-12              1.              1.              1.     281.568E-09    -333.799E-09         1.00000    -333.333E-03              1.    -26.1156E-09    -26.1156E-09              1.     177.601E-09     17.1760E-09    -17.1761E-09
             335              0.              0.              0.              0.              0.              0.              0.              0.     2.14976E-03    -24.7500E-06     74.2500E-06     2.14834E-03    100.0000E-06    100.0000E-06    -49.4999E-06    -49.5001E-06    -49.5000E-06    -49.5000E-06    100.0000E-06    -113.074E-12    -3.80578E-12    -9.61815E-12    100.0000E-06    100.0000E-06    -49.4999E-06    -49.5001E-06    -49.5000E-06    -49.5000E-06    100.0000E-06    -113.074E-12    -3.80578E-12    -9.61815E-12    1000.000E-03    1000.000E-03    1000.000E-03     615.890E-09    -545.387E-09         1.00000    -333.333E-03    1000.000E-03     36.3921E-09     34.1110E-09    1000.000E-03    -378.175E-09    -12.7284E-09    -32.1677E-09
             336              0.              0.              0.              0.              0.              0.              0.              0.     2.15204E-03    -24.7498E-06     123.750E-06     2.14834E-03    100.0000E-06    100.0000E-06    -49.4998E-06    -49.5002E-06    -49.5000E-06    -49.5000E-06    100.0000E-06    -176.350E-12     10.9995E-12    -89.4973E-12    100.0000E-06    100.0000E-06    -49.4998E-06    -49.5002E-06    -49.5000E-06    -49.5000E-06    100.0000E-06    -176.350E-12     10.9995E-12    -89.4973E-12              1.    1000.000E-03    1000.000E-03     1.35817E-06    -1.52488E-06         1.00000    -333.333E-03              1.    -297.025E-09     130.312E-09    1000.000E-03    -589.801E-09     36.7876E-09    -299.322E-09
             337              0.              0.              0.              0.              0.              0.              0.              0.     2.05222E-03    -24.7503E-06    -123.750E-06     2.04834E-03    100.0000E-06    100.0000E-06    -49.4997E-06    -49.5003E-06    -49.4999E-06    -49.5001E-06    100.0000E-06    -265.881E-12    -19.4175E-12    -156.667E-12    100.0000E-06    100.0000E-06    -49.4997E-06    -49.5003E-06    -49.4999E-06    -49.5001E-06    100.0000E-06    -265.881E-12    -19.4175E-12    -156.667E-12              1.         1.00000         1.00000     2.37331E-06    -2.08438E-06         1.00000    -333.333E-03              1.     503.509E-09    -214.580E-09         1.00000    -889.235E-09    -64.9416E-09    -523.970E-09
             338              0.              0.              0.              0.              0.              0.              0.              0.     2.04983E-03    -24.7500E-06    -74.2500E-06     2.04834E-03     100.000E-06     100.000E-06    -49.4999E-06    -49.5001E-06    -49.5000E-06    -49.5000E-06     100.000E-06    -171.854E-12     5.94498E-12    -16.1106E-12     100.000E-06     100.000E-06    -49.4999E-06    -49.5001E-06    -49.5000E-06    -49.5000E-06     100.000E-06    -171.854E-12     5.94498E-12    -16.1106E-12         1.00000         1.00000         1.00000     819.138E-09    -936.961E-09         1.00000    -333.333E-03         1.00000    -62.8632E-09    -54.9598E-09         1.00000    -574.764E-09     19.8829E-09    -53.8818E-09
             339              0.              0.              0.              0.              0.              0.              0.              0.     2.04864E-03    -24.7501E-06    -24.7501E-06     2.04834E-03    100.0000E-06    100.0000E-06    -49.4999E-06    -49.5001E-06    -49.5000E-06    -49.5000E-06    100.0000E-06     77.2523E-12    -9.35210E-12    -9.35207E-12    100.0000E-06    100.0000E-06    -49.4999E-06    -49.5001E-06    -49.5000E-06    -49.5000E-06    100.0000E-06     77.2523E-12    -9.35210E-12    -9.35207E-12    1000.000E-03              1.              1.     534.884E-09    -437.545E-09         1.00000    -333.333E-03              1.     48.6698E-09     48.6698E-09              1.     258.369E-09    -31.2779E-09    -31.2778E-09
             340              0.              0.              0.              0.              0.              0.              0.              0.     2.04864E-03    -24.7501E-06     24.7501E-06     2.04834E-03    100.0000E-06    100.0000E-06    -49.4999E-06    -49.5001E-06    -49.5000E-06    -49.5000E-06    100.0000E-06    -77.2523E-12    -9.35210E-12     9.35206E-12    100.0000E-06    100.0000E-06    -49.4999E-06    -49.5001E-06    -49.5000E-06    -49.5000E-06    100.0000E-06    -77.2523E-12    -9.35210E-12     9.35206E-12    1000.000E-03              1.              1.     534.882E-09    -437.542E-09         1.00000    -333.333E-03              1.     48.6700E-09     48.6700E-09              1.    -258.369E-09    -31.2779E-09     31.2778E-09
             341              0.              0.              0.              0.              0.              0.              0.              0.     2.04983E-03    -24.7500E-06     74.2500E-06     2.04834E-03     100.000E-06     100.000E-06    -49.4999E-06    -49.5001E-06    -49.5000E-06    -49.5000E-06     100.000E-06     171.854E-12     5.94491E-12     16.1106E-12     100.000E-06     100.000E-06    -49.4999E-06    -49.5001E-06    -49.5000E-06    -49.5000E-06     100.000E-06     171.854E-12     5.94491E-12     16.1106E-12         1.00000         1.00000         1.00000     819.142E-09    -936.965E-09         1.00000    -333.333E-03         1.00000    -62.8632E-09    -54.9599E-09         1.00000     574.764E-09     19.8826E-09     53.8817E-09
             342              0.              0.              0.              0.              0.              0.              0.              0.     2.05222E-03    -24.7503E-06     123.750E-06     2.04834E-03    100.0000E-06    100.0000E-06    -49.4997E-06    -49.5003E-06    -49.4999E-06    -49.5001E-06    100.0000E-06     265.881E-12    -19.4176E-12     156.667E-12    100.0000E-06    100.0000E-06    -49.4997E-06    -49.5003E-06    -49.4999E-06    -49.5001E-06    100.0000E-06     265.881E-12    -19.4176E-12     156.667E-12              1.         1.00000         1.00000     2.37331E-06    -2.08438E-06         1.00000    -333.333E-03              1.     503.510E-09    -214.580E-09         1.00000     889.235E-09    -64.9418E-09     523.970E-09
             343              0.              0.              0.              0.              0.              0.              0.              0.     1.95242E-03    -24.7495E-06    -123.750E-06     1.94834E-03    100.0000E-06    100.0000E-06    -49.4995E-06    -49.5005E-06    -49.5001E-06    -49.4999E-06    100.0000E-06     408.204E-12     32.8402E-12     269.384E-12    100.0000E-06    100.0000E-06    -49.4995E-06    -49.5005E-06    -49.5001E-06    -49.4999E-06    100.0000E-06     408.204E-12     32.8402E-12     269.384E-12              1.    1000.000E-03    1000.000E-03     3.27024E-06    -3.77041E-06         1.00000    -333.333E-03              1.    -863.026E-09     362.870E-09    1000.000E-03     1.36523E-06     109.833E-09     900.951E-09
             344              0.              0.              0.              0.              0.              0.              0.              0.     1.94991E-03    -24.7500E-06    -74.2501E-06     1.94834E-03    100.0000E-06    100.0000E-06    -49.4998E-06    -49.5002E-06    -49.5000E-06    -49.5000E-06    100.0000E-06     266.328E-12    -9.45884E-12     25.0143E-12    100.0000E-06    100.0000E-06    -49.4998E-06    -49.5002E-06    -49.5000E-06    -49.5000E-06    100.0000E-06     266.328E-12    -9.45884E-12     25.0143E-12    1000.000E-03    1000.000E-03    1000.000E-03     1.47177E-06    -1.25824E-06         1.00000    -333.333E-03    1000.000E-03     118.650E-09     94.8805E-09    1000.000E-03     890.730E-09    -31.6349E-09     83.6599E-09
             345              0.              0.              0.              0.              0.              0.              0.              0.     1.94865E-03    -24.7499E-06    -24.7499E-06     1.94834E-03     100.000E-06     100.000E-06    -49.4999E-06    -49.5001E-06    -49.5000E-06    -49.5000E-06     100.000E-06    -114.132E-12     15.9992E-12     15.9992E-12     100.000E-06     100.000E-06    -49.4999E-06    -49.5001E-06    -49.5000E-06    -49.5000E-06     100.000E-06    -114.132E-12     15.9992E-12     15.9992E-12         1.00000              1.              1.     706.081E-09    -873.945E-09         1.00000    -333.333E-03         1.00000    -83.9314E-09    -83.9315E-09              1.    -381.712E-09     53.5090E-09     53.5090E-09
             346              0.              0.              0.              0.              0.              0.              0.              0.     1.94865E-03    -24.7499E-06     24.7499E-06     1.94834E-03     100.000E-06     100.000E-06    -49.4999E-06    -49.5001E-06    -49.5000E-06    -49.5000E-06     100.000E-06     114.132E-12     15.9992E-12    -15.9992E-12     100.000E-06     100.000E-06    -49.4999E-06    -49.5001E-06    -49.5000E-06    -49.5000E-06     100.000E-06     114.132E-12     15.9992E-12    -15.9992E-12         1.00000              1.              1.     706.081E-09    -873.945E-09         1.00000    -333.333E-03         1.00000    -83.9316E-09    -83.9314E-09              1.     381.712E-09     53.5089E-09    -53.5091E-09
             347              0.              0.              0.              0.              0.              0.              0.              0.     1.94991E-03    -24.7500E-06     74.2501E-06     1.94834E-03    100.0000E-06    100.0000E-06    -49.4998E-06    -49.5002E-06    -49.5000E-06    -49.5000E-06    100.0000E-06    -266.328E-12    -9.45886E-12    -25.0143E-12    100.0000E-06    100.0000E-06    -49.4998E-06    -49.5002E-06    -49.5000E-06    -49.5000E-06    100.0000E-06    -266.328E-12    -9.45886E-12    -25.0143E-12    1000.000E-03    1000.000E-03    1000.000E-03     1.47177E-06    -1.25824E-06         1.00000    -333.333E-03    1000.000E-03     118.650E-09     94.8805E-09    1000.000E-03    -890.730E-09    -31.6350E-09    -83.6599E-09
             348              0.              0.              0.              0.              0.              0.              0.              0.     1.95242E-03    -24.7495E-06     123.750E-06     1.94834E-03    100.0000E-06    100.0000E-06    -49.4995E-06    -49.5005E-06    -49.5001E-06    -49.4999E-06    100.0000E-06    -408.204E-12     32.8401E-12    -269.384E-12    100.0000E-06    100.0000E-06    -49.4995E-06    -49.5005E-06    -49.5001E-06    -49.4999E-06    100.0000E-06    -408.204E-12     32.8401E-12    -269.384E-12              1.    1000.000E-03    1000.000E-03     3.27024E-06    -3.77041E-06         1.00000    -333.333E-03              1.    -863.026E-09     362.870E-09    1000.000E-03    -1.36523E-06     109.833E-09    -900.951E-09
             349              0.              0.              0.              0.              0.              0.              0.              0.     1.85264E-03    -24.7508E-06    -123.750E-06     1.84834E-03     100.000E-06     100.000E-06    -49.4992E-06    -49.5008E-06    -49.4998E-06    -49.5002E-06     100.000E-06    -629.953E-12    -56.3504E-12    -464.119E-12     100.000E-06     100.000E-06    -49.4992E-06    -49.5008E-06    -49.4998E-06    -49.5002E-06     100.000E-06    -629.953E-12    -56.3504E-12    -464.119E-12              1.         1.00000         1.00000     6.04898E-06    -5.16301E-06         1.00001    -333.334E-03              1.     1.50727E-06    -621.273E-09         1.00000    -2.10687E-06    -188.463E-09    -1.55224E-06
             350              0.              0.              0.              0.              0.              0.              0.              0.     1.85000E-03    -24.7500E-06    -74.2499E-06     1.84834E-03     100.000E-06     100.000E-06    -49.4997E-06    -49.5003E-06    -49.5000E-06    -49.5000E-06     100.000E-06    -415.638E-12     13.7037E-12    -40.9358E-12     100.000E-06     100.000E-06    -49.4997E-06    -49.5003E-06    -49.5000E-06    -49.5000E-06     100.000E-06    -415.638E-12     13.7037E-12    -40.9358E-12         1.00000         1.00000         1.00000     1.96779E-06    -2.34348E-06         1.00000    -333.333E-03         1.00000    -213.262E-09    -162.423E-09         1.00000    -1.39009E-06     45.8318E-09    -136.909E-09
             351              0.              0.              0.              0.              0.              0.              0.              0.     1.84867E-03    -24.7502E-06    -24.7502E-06     1.84834E-03    100.0000E-06    100.0000E-06    -49.4998E-06    -49.5002E-06    -49.5000E-06    -49.5000E-06    100.0000E-06     168.478E-12    -28.8570E-12    -28.8570E-12    100.0000E-06    100.0000E-06    -49.4998E-06    -49.5002E-06    -49.5000E-06    -49.5000E-06    100.0000E-06     168.478E-12    -28.8570E-12    -28.8570E-12    1000.000E-03    1000.000E-03    1000.000E-03     1.45423E-06    -1.14753E-06         1.00000    -333.333E-03    1000.000E-03     153.351E-09     153.351E-09    1000.000E-03     563.471E-09    -96.5118E-09    -96.5119E-09
             352              0.              0.              0.              0.              0.              0.              0.              0.     1.84867E-03    -24.7502E-06     24.7502E-06     1.84834E-03    100.0000E-06    100.0000E-06    -49.4998E-06    -49.5002E-06    -49.5000E-06    -49.5000E-06    100.0000E-06    -168.478E-12    -28.8571E-12     28.8570E-12    100.0000E-06    100.0000E-06    -49.4998E-06    -49.5002E-06    -49.5000E-06    -49.5000E-06    100.0000E-06    -168.478E-12    -28.8571E-12     28.8570E-12    1000.000E-03    1000.000E-03    1000.000E-03     1.45423E-06    -1.14753E-06         1.00000    -333.333E-03    1000.000E-03     153.351E-09     153.351E-09    1000.000E-03    -563.472E-09    -96.5119E-09     96.5118E-09
             353              0.              0.              0.              0.              0.              0.              0.              0.     1.85000E-03    -24.7500E-06     74.2499E-06     1.84834E-03     100.000E-06     100.000E-06    -49.4997E-06    -49.5003E-06    -49.5000E-06    -49.5000E-06     100.000E-06     415.638E-12     13.7037E-12     40.9358E-12     100.000E-06     100.000E-06    -49.4997E-06    -49.5003E-06    -49.5000E-06    -49.5000E-06     100.000E-06     415.638E-12     13.7037E-12     40.9358E-12         1.00000         1.00000         1.00000     1.96779E-06    -2.34348E-06         1.00000    -333.333E-03         1.00000    -213.262E-09    -162.423E-09         1.00000     1.39009E-06     45.8318E-09     136.909E-09
             354              0.              0.              0.              0.              0.              0.              0.              0.     1.85264E-03    -24.7508E-06     123.750E-06     1.84834E-03     100.000E-06     100.000E-06    -49.4992E-06    -49.5008E-06    -49.4998E-06    -49.5002E-06     100.000E-06     629.953E-12    -56.3505E-12     464.119E-12     100.000E-06     100.000E-06    -49.4992E-06    -49.5008E-06    -49.4998E-06    -49.5002E-06     100.000E-06     629.953E-12    -56.3505E-12     464.119E-12              1.         1.00000         1.00000     6.04898E-06    -5.16301E-06         1.00001    -333.334E-03              1.     1.50727E-06    -621.273E-09         1.00000     2.10687E-06    -188.463E-09     1.55224E-06
             355              0.              0.              0.              0.              0.              0.              0.              0.     1.75289E-03    -24.7488E-06    -123.750E-06     1.74834E-03    100.0000E-06    100.0000E-06    -49.4987E-06    -49.5013E-06    -49.5003E-06    -49.4997E-06    100.0000E-06     969.415E-12     96.0787E-12     799.001E-12    100.0000E-06    100.0000E-06    -49.4987E-06    -49.5013E-06    -49.5003E-06    -49.4997E-06    100.0000E-06     969.415E-12     96.0787E-12     799.001E-12              1.     999.999E-03     999.999E-03     8.16303E-06    -9.74918E-06         1.00001    -333.333E-03              1.    -2.64603E-06     1.05997E-06     999.999E-03     3.24219E-06     321.333E-09     2.67224E-06
             356              0.              0.              0.              0.              0.              0.              0.              0.     1.75009E-03    -24.7500E-06    -74.2502E-06     1.74834E-03     99.9999E-06     99.9999E-06    -49.4995E-06    -49.5005E-06    -49.5000E-06    -49.5000E-06     99.9999E-06     647.451E-12    -19.1597E-12     63.4265E-12     99.9999E-06     99.9999E-06    -49.4995E-06    -49.5005E-06    -49.5000E-06    -49.5000E-06     99.9999E-06     647.451E-12    -19.1597E-12     63.4265E-12     999.999E-03    1000.000E-03    1000.000E-03     3.75798E-06    -3.10876E-06         1.00000    -333.333E-03     999.999E-03     378.007E-09     271.223E-09    1000.000E-03     2.16539E-06    -64.0793E-09     212.129E-09
             357              0.              0.              0.              0.              0.              0.              0.              0.     1.74869E-03    -24.7497E-06    -24.7497E-06     1.74834E-03     100.000E-06     100.000E-06    -49.4997E-06    -49.5003E-06    -49.5000E-06    -49.5000E-06     100.000E-06    -247.536E-12     50.4278E-12     50.4278E-12     100.000E-06     100.000E-06    -49.4997E-06    -49.5003E-06    -49.5000E-06    -49.5000E-06     100.000E-06    -247.536E-12     50.4278E-12     50.4278E-12         1.00000         1.00000         1.00000     1.86516E-06    -2.46919E-06         1.00000    -333.333E-03         1.00000    -302.011E-09    -302.011E-09         1.00000    -827.878E-09     168.655E-09     168.655E-09
             358              0.              0.              0.              0.              0.              0.              0.              0.     1.74869E-03    -24.7497E-06     24.7497E-06     1.74834E-03     100.000E-06     100.000E-06    -49.4997E-06    -49.5003E-06    -49.5000E-06    -49.5000E-06     100.000E-06     247.536E-12     50.4278E-12    -50.4279E-12     100.000E-06     100.000E-06    -49.4997E-06    -49.5003E-06    -49.5000E-06    -49.5000E-06     100.000E-06     247.536E-12     50.4278E-12    -50.4279E-12         1.00000         1.00000         1.00000     1.86516E-06    -2.46918E-06         1.00000    -333.333E-03         1.00000    -302.011E-09    -302.011E-09         1.00000     827.878E-09     168.655E-09    -168.655E-09
             359              0.              0.              0.              0.              0.              0.              0.              0.     1.75009E-03    -24.7500E-06     74.2502E-06     1.74834E-03     99.9999E-06     99.9999E-06    -49.4995E-06    -49.5005E-06    -49.5000E-06    -49.5000E-06     99.9999E-06    -647.451E-12    -19.1598E-12    -63.4265E-12     99.9999E-06     99.9999E-06    -49.4995E-06    -49.5005E-06    -49.5000E-06    -49.5000E-06     99.9999E-06    -647.451E-12    -19.1598E-12    -63.4265E-12     999.999E-03    1000.000E-03    1000.000E-03     3.75798E-06    -3.10875E-06         1.00000    -333.333E-03     999.999E-03     378.007E-09     271.223E-09    1000.000E-03    -2.16539E-06    -64.0794E-09    -212.129E-09
             360              0.              0.              0.              0.              0.              0.              0.              0.     1.75289E-03    -24.7488E-06     123.750E-06     1.74834E-03    100.0000E-06    100.0000E-06    -49.4987E-06    -49.5013E-06    -49.5003E-06    -49.4997E-06    100.0000E-06    -969.415E-12     96.0786E-12    -799.001E-12    100.0000E-06    100.0000E-06    -49.4987E-06    -49.5013E-06    -49.5003E-06    -49.4997E-06    100.0000E-06    -969.415E-12     96.0786E-12    -799.001E-12              1.     999.999E-03     999.999E-03     8.16303E-06    -9.74918E-06         1.00001    -333.333E-03              1.    -2.64603E-06     1.05997E-06     999.999E-03    -3.24219E-06     321.333E-09    -2.67224E-06
             361              0.              0.              0.              0.              0.              0.              0.              0.     1.65316E-03    -24.7520E-06    -123.751E-06     1.64834E-03     100.000E-06     100.000E-06    -49.4979E-06    -49.5021E-06    -49.4995E-06    -49.5005E-06     100.000E-06    -1.48707E-09    -155.507E-12    -1.38063E-09     100.000E-06     100.000E-06    -49.4979E-06    -49.5021E-06    -49.4995E-06    -49.5005E-06     100.000E-06    -1.48707E-09    -155.507E-12    -1.38063E-09         1.00000         1.00000         1.00000     15.6899E-06    -12.9706E-06         1.00001    -333.335E-03              1.     4.58934E-06    -1.86976E-06         1.00000    -4.97347E-06    -520.091E-09    -4.61749E-06
             362              0.              0.              0.              0.              0.              0.              0.              0.     1.65020E-03    -24.7501E-06    -74.2496E-06     1.64834E-03     100.000E-06     100.000E-06    -49.4992E-06    -49.5009E-06    -49.5001E-06    -49.5000E-06     100.000E-06    -1.00918E-09     32.4329E-12    -91.2675E-12     100.000E-06     100.000E-06    -49.4992E-06    -49.5009E-06    -49.5001E-06    -49.5000E-06     100.000E-06    -1.00918E-09     32.4329E-12    -91.2675E-12         1.00000         1.00000         1.00000     4.87234E-06    -6.17074E-06         1.00001    -333.333E-03         1.00000    -770.577E-09    -527.806E-09         1.00000    -3.37518E-06     108.471E-09    -305.243E-09
             363              0.              0.              0.              0.              0.              0.              0.              0.     1.64871E-03    -24.7505E-06    -24.7505E-06     1.64834E-03     99.9999E-06     99.9999E-06    -49.4994E-06    -49.5005E-06    -49.5000E-06    -49.5000E-06     99.9999E-06     357.208E-12    -83.5126E-12    -83.5125E-12     99.9999E-06     99.9999E-06    -49.4994E-06    -49.5005E-06    -49.5000E-06    -49.5000E-06     99.9999E-06     357.208E-12    -83.5126E-12    -83.5125E-12     999.999E-03    1000.000E-03    1000.000E-03     4.08502E-06    -3.19945E-06         1.00000    -333.334E-03     999.999E-03     442.797E-09     442.797E-09    1000.000E-03     1.19468E-06    -279.306E-09    -279.306E-09
             364              0.              0.              0.              0.              0.              0.              0.              0.     1.64871E-03    -24.7505E-06     24.7505E-06     1.64834E-03     99.9999E-06     99.9999E-06    -49.4994E-06    -49.5005E-06    -49.5000E-06    -49.5000E-06     99.9999E-06    -357.208E-12    -83.5126E-12     83.5125E-12     99.9999E-06     99.9999E-06    -49.4994E-06    -49.5005E-06    -49.5000E-06    -49.5000E-06     99.9999E-06    -357.208E-12    -83.5126E-12     83.5125E-12     999.999E-03    1000.000E-03    1000.000E-03     4.08502E-06    -3.19945E-06         1.00000    -333.334E-03     999.999E-03     442.797E-09     442.797E-09    1000.000E-03    -1.19468E-06    -279.306E-09     279.306E-09
             365              0.              0.              0.              0.              0.              0.              0.              0.     1.65020E-03    -24.7501E-06     74.2496E-06     1.64834E-03     100.000E-06     100.000E-06    -49.4992E-06    -49.5009E-06    -49.5001E-06    -49.5000E-06     100.000E-06     1.00918E-09     32.4328E-12     91.2675E-12     100.000E-06     100.000E-06    -49.4992E-06    -49.5009E-06    -49.5001E-06    -49.5000E-06     100.000E-06     1.00918E-09     32.4328E-12     91.2675E-12         1.00000         1.00000         1.00000     4.87234E-06    -6.17074E-06         1.00001    -333.333E-03         1.00000    -770.577E-09    -527.806E-09         1.00000     3.37518E-06     108.471E-09     305.243E-09
             366              0.              0.              0.              0.              0.              0.              0.              0.     1.65316E-03    -24.7520E-06     123.751E-06     1.64834E-03     100.000E-06     100.000E-06    -49.4979E-06    -49.5021E-06    -49.4995E-06    -49.5005E-06     100.000E-06     1.48707E-09    -155.507E-12     1.38063E-09     100.000E-06     100.000E-06    -49.4979E-06    -49.5021E-06    -49.4995E-06    -49.5005E-06     100.000E-06     1.48707E-09    -155.507E-12     1.38063E-09         1.00000         1.00000         1.00000     15.6899E-06    -12.9706E-06         1.00001    -333.335E-03              1.     4.58934E-06    -1.86976E-06         1.00000     4.97347E-06    -520.091E-09     4.61749E-06
             367              0.              0.              0.              0.              0.              0.              0.              0.     1.55348E-03    -24.7468E-06    -123.749E-06     1.54834E-03     100.000E-06     100.000E-06    -49.4966E-06    -49.5034E-06    -49.5009E-06    -49.4991E-06     100.000E-06     2.26035E-09     289.303E-12     2.42187E-09     100.000E-06     100.000E-06    -49.4966E-06    -49.5034E-06    -49.5009E-06    -49.4991E-06     100.000E-06     2.26035E-09     289.303E-12     2.42187E-09              1.     999.997E-03     999.997E-03     20.3258E-06    -25.5059E-06         1.00002    -333.331E-03         1.00000    -8.35027E-06     3.17084E-06     999.997E-03     7.55970E-06     967.570E-09     8.09990E-06
             368              0.              0.              0.              0.              0.              0.              0.              0.     1.55032E-03    -24.7497E-06    -74.2507E-06     1.54834E-03     99.9998E-06     99.9998E-06    -49.4986E-06    -49.5012E-06    -49.4999E-06    -49.4999E-06     99.9998E-06     1.56112E-09    -20.3414E-12     178.580E-12     99.9998E-06     99.9998E-06    -49.4986E-06    -49.5012E-06    -49.4999E-06    -49.4999E-06     99.9998E-06     1.56112E-09    -20.3414E-12     178.580E-12     999.998E-03     999.999E-03     999.999E-03     9.90010E-06    -7.98491E-06         1.00001    -333.334E-03     999.998E-03     1.14192E-06     773.319E-09     999.999E-03     5.22112E-06    -68.0314E-09     597.259E-09
             369              0.              0.              0.              0.              0.              0.              0.              0.     1.54874E-03    -24.7492E-06    -24.7492E-06     1.54834E-03     100.000E-06     100.000E-06    -49.4992E-06    -49.5010E-06    -49.5001E-06    -49.5001E-06     100.000E-06    -508.155E-12     171.106E-12     171.106E-12     100.000E-06     100.000E-06    -49.4992E-06    -49.5010E-06    -49.5001E-06    -49.5001E-06     100.000E-06    -508.155E-12     171.106E-12     171.106E-12         1.00000         1.00000         1.00000     5.01674E-06    -7.28205E-06         1.00001    -333.333E-03         1.00000    -1.13262E-06    -1.13262E-06         1.00000    -1.69951E-06     572.262E-09     572.262E-09
             370              0.              0.              0.              0.              0.              0.              0.              0.     1.54874E-03    -24.7492E-06     24.7492E-06     1.54834E-03     100.000E-06     100.000E-06    -49.4992E-06    -49.5010E-06    -49.5001E-06    -49.5001E-06     100.000E-06     508.155E-12     171.106E-12    -171.106E-12     100.000E-06     100.000E-06    -49.4992E-06    -49.5010E-06    -49.5001E-06    -49.5001E-06     100.000E-06     508.155E-12     171.106E-12    -171.106E-12         1.00000         1.00000         1.00000     5.01674E-06    -7.28205E-06         1.00001    -333.333E-03         1.00000    -1.13262E-06    -1.13262E-06         1.00000     1.69951E-06     572.261E-09    -572.262E-09
             371              0.              0.              0.              0.              0.              0.              0.              0.     1.55032E-03    -24.7497E-06     74.2507E-06     1.54834E-03     99.9998E-06     99.9998E-06    -49.4986E-06    -49.5012E-06    -49.4999E-06    -49.4999E-06     99.9998E-06    -1.56112E-09    -20.3414E-12    -178.580E-12     99.9998E-06     99.9998E-06    -49.4986E-06    -49.5012E-06    -49.4999E-06    -49.4999E-06     99.9998E-06    -1.56112E-09    -20.3414E-12    -178.580E-12     999.998E-03     999.999E-03     999.999E-03     9.90010E-06    -7.98491E-06         1.00001    -333.334E-03     999.998E-03     1.14192E-06     773.319E-09     999.999E-03    -5.22112E-06    -68.0315E-09    -597.259E-09
             372              0.              0.              0.              0.              0.              0.              0.              0.     1.55348E-03    -24.7468E-06     123.749E-06     1.54834E-03     100.000E-06     100.000E-06    -49.4966E-06    -49.5034E-06    -49.5009E-06    -49.4991E-06     100.000E-06    -2.26035E-09     289.303E-12    -2.42187E-09     100.000E-06     100.000E-06    -49.4966E-06    -49.5034E-06    -49.5009E-06    -49.4991E-06     100.000E-06    -2.26035E-09     289.303E-12    -2.42187E-09              1.     999.997E-03     999.997E-03     20.3258E-06    -25.5059E-06         1.00002    -333.331E-03         1.00000    -8.35027E-06     3.17084E-06     999.997E-03    -7.55970E-06     967.570E-09    -8.09990E-06
             373              0.              0.              0.              0.              0.              0.              0.              0.     1.45382E-03    -24.7552E-06    -123.752E-06     1.44834E-03     100.000E-06     100.000E-06    -49.4945E-06    -49.5055E-06    -49.4985E-06    -49.5015E-06     100.000E-06    -3.40163E-09    -415.946E-12    -4.16403E-09     100.000E-06     100.000E-06    -49.4945E-06    -49.5055E-06    -49.4985E-06    -49.5015E-06     100.000E-06    -3.40163E-09    -415.946E-12    -4.16403E-09         1.00000         1.00000         1.00000     40.9480E-06    -32.4951E-06         1.00004    -333.338E-03         1.00000     14.1418E-06    -5.68720E-06         1.00000    -11.3767E-06    -1.39112E-06    -13.9265E-06
             374              0.              0.              0.              0.              0.              0.              0.              0.     1.45045E-03    -24.7508E-06    -74.2488E-06     1.44834E-03     100.000E-06     100.000E-06    -49.4980E-06    -49.5024E-06    -49.5003E-06    -49.5001E-06     100.000E-06    -2.40146E-09     76.0593E-12    -154.813E-12     100.000E-06     100.000E-06    -49.4980E-06    -49.5024E-06    -49.5003E-06    -49.5001E-06     100.000E-06    -2.40146E-09     76.0593E-12    -154.813E-12         1.00000         1.00000         1.00000     12.3570E-06    -16.8212E-06         1.00002    -333.333E-03         1.00000    -2.74152E-06    -1.72245E-06         1.00000    -8.03163E-06     254.379E-09    -517.768E-09
             375              0.              0.              0.              0.              0.              0.              0.              0.     1.44876E-03    -24.7515E-06    -24.7515E-06     1.44834E-03     99.9999E-06     99.9999E-06    -49.4984E-06    -49.5015E-06    -49.4999E-06    -49.4999E-06     99.9999E-06     705.647E-12    -228.587E-12    -228.587E-12     99.9999E-06     99.9999E-06    -49.4984E-06    -49.5015E-06    -49.4999E-06    -49.4999E-06     99.9999E-06     705.647E-12    -228.587E-12    -228.587E-12     999.999E-03         1.00000         1.00000     11.9429E-06    -9.19086E-06         1.00001    -333.334E-03     999.999E-03     1.37613E-06     1.37613E-06         1.00000     2.36002E-06    -764.506E-09    -764.506E-09
             376              0.              0.              0.              0.              0.              0.              0.              0.     1.44876E-03    -24.7515E-06     24.7515E-06     1.44834E-03     99.9999E-06     99.9999E-06    -49.4984E-06    -49.5015E-06    -49.4999E-06    -49.4999E-06     99.9999E-06    -705.647E-12    -228.587E-12     228.587E-12     99.9999E-06     99.9999E-06    -49.4984E-06    -49.5015E-06    -49.4999E-06    -49.4999E-06     99.9999E-06    -705.647E-12    -228.587E-12     228.587E-12     999.999E-03         1.00000         1.00000     11.9429E-06    -9.19086E-06         1.00001    -333.334E-03     999.999E-03     1.37613E-06     1.37613E-06         1.00000    -2.36002E-06    -764.506E-09     764.506E-09
             377              0.              0.              0.              0.              0.              0.              0.              0.     1.45045E-03    -24.7508E-06     74.2488E-06     1.44834E-03     100.000E-06     100.000E-06    -49.4980E-06    -49.5024E-06    -49.5003E-06    -49.5001E-06     100.000E-06     2.40146E-09     76.0592E-12     154.813E-12     100.000E-06     100.000E-06    -49.4980E-06    -49.5024E-06    -49.5003E-06    -49.5001E-06     100.000E-06     2.40146E-09     76.0592E-12     154.813E-12         1.00000         1.00000         1.00000     12.3570E-06    -16.8212E-06         1.00002    -333.333E-03         1.00000    -2.74152E-06    -1.72245E-06         1.00000     8.03163E-06     254.379E-09     517.768E-09
             378              0.              0.              0.              0.              0.              0.              0.              0.     1.45382E-03    -24.7552E-06     123.752E-06     1.44834E-03     100.000E-06     100.000E-06    -49.4945E-06    -49.5055E-06    -49.4985E-06    -49.5015E-06     100.000E-06     3.40163E-09    -415.946E-12     4.16403E-09     100.000E-06     100.000E-06    -49.4945E-06    -49.5055E-06    -49.4985E-06    -49.5015E-06     100.000E-06     3.40163E-09    -415.946E-12     4.16403E-09         1.00000         1.00000         1.00000     40.9480E-06    -32.4951E-06         1.00004    -333.338E-03         1.00000     14.1418E-06    -5.68720E-06         1.00000     11.3767E-06    -1.39112E-06     13.9265E-06
             379              0.              0.              0.              0.              0.              0.              0.              0.     1.35424E-03    -24.7418E-06    -123.747E-06     1.34834E-03    100.0000E-06    100.0000E-06    -49.4912E-06    -49.5088E-06    -49.5027E-06    -49.4973E-06    100.0000E-06     5.08868E-09     830.044E-12     7.49071E-09    100.0000E-06    100.0000E-06    -49.4912E-06    -49.5088E-06    -49.5027E-06    -49.4973E-06    100.0000E-06     5.08868E-09     830.044E-12     7.49071E-09    1000.000E-03     999.992E-03     999.992E-03     50.5239E-06    -66.8576E-06         1.00006    -333.325E-03    1000.000E-03    -26.3047E-06     9.97559E-06     999.992E-03     17.0190E-06     2.77607E-06     25.0525E-06
             380              0.              0.              0.              0.              0.              0.              0.              0.     1.35061E-03    -24.7484E-06    -74.2523E-06     1.34834E-03     99.9994E-06     99.9994E-06    -49.4961E-06    -49.5033E-06    -49.4996E-06    -49.4998E-06     99.9994E-06     3.70416E-09     18.5219E-12     495.329E-12     99.9994E-06     99.9994E-06    -49.4961E-06    -49.5033E-06    -49.4996E-06    -49.4998E-06     99.9994E-06     3.70416E-09     18.5219E-12     495.329E-12     999.994E-03     999.997E-03     999.997E-03     27.5769E-06    -20.8994E-06         1.00002    -333.335E-03     999.994E-03     4.00674E-06     2.67135E-06     999.997E-03     12.3885E-06     61.9466E-09     1.65662E-06
             381              0.              0.              0.              0.              0.              0.              0.              0.     1.34879E-03    -24.7475E-06    -24.7475E-06     1.34834E-03     100.001E-06     100.001E-06    -49.4976E-06    -49.5030E-06    -49.5003E-06    -49.5003E-06     100.001E-06    -922.297E-12     560.645E-12     560.645E-12     100.001E-06     100.001E-06    -49.4976E-06    -49.5030E-06    -49.5003E-06    -49.5003E-06     100.001E-06    -922.297E-12     560.645E-12     560.645E-12         1.00001         1.00000         1.00000     14.6871E-06    -21.3377E-06         1.00002    -333.332E-03         1.00001    -3.32493E-06    -3.32493E-06         1.00000    -3.08461E-06     1.87507E-06     1.87507E-06
             382              0.              0.              0.              0.              0.              0.              0.              0.     1.34879E-03    -24.7475E-06     24.7475E-06     1.34834E-03     100.001E-06     100.001E-06    -49.4976E-06    -49.5030E-06    -49.5003E-06    -49.5003E-06     100.001E-06     922.297E-12     560.645E-12    -560.645E-12     100.001E-06     100.001E-06    -49.4976E-06    -49.5030E-06    -49.5003E-06    -49.5003E-06     100.001E-06     922.297E-12     560.645E-12    -560.645E-12         1.00001         1.00000         1.00000     14.6871E-06    -21.3377E-06         1.00002    -333.332E-03         1.00001    -3.32493E-06    -3.32493E-06         1.00000     3.08461E-06     1.87507E-06    -1.87507E-06
             383              0.              0.              0.              0.              0.              0.              0.              0.     1.35061E-03    -24.7484E-06     74.2523E-06     1.34834E-03     99.9994E-06     99.9994E-06    -49.4961E-06    -49.5033E-06    -49.4996E-06    -49.4998E-06     99.9994E-06    -3.70416E-09     18.5219E-12    -495.329E-12     99.9994E-06     99.9994E-06    -49.4961E-06    -49.5033E-06    -49.4996E-06    -49.4998E-06     99.9994E-06    -3.70416E-09     18.5219E-12    -495.329E-12     999.994E-03     999.997E-03     999.997E-03     27.5769E-06    -20.8994E-06         1.00002    -333.335E-03     999.994E-03     4.00674E-06     2.67135E-06     999.997E-03    -12.3885E-06     61.9464E-09    -1.65662E-06
             384              0.              0.              0.              0.              0.              0.              0.              0.     1.35424E-03    -24.7418E-06     123.747E-06     1.34834E-03    100.0000E-06    100.0000E-06    -49.4912E-06    -49.5088E-06    -49.5027E-06    -49.4973E-06    100.0000E-06    -5.08868E-09     830.044E-12    -7.49071E-09    100.0000E-06    100.0000E-06    -49.4912E-06    -49.5088E-06    -49.5027E-06    -49.4973E-06    100.0000E-06    -5.08868E-09     830.044E-12    -7.49071E-09    1000.000E-03     999.992E-03     999.992E-03     50.5239E-06    -66.8576E-06         1.00006    -333.325E-03    1000.000E-03    -26.3047E-06     9.97559E-06     999.992E-03    -17.0190E-06     2.77607E-06    -25.0525E-06
             385              0.              0.              0.              0.              0.              0.              0.              0.     1.25470E-03    -24.7633E-06    -123.756E-06     1.24833E-03     99.9999E-06     99.9999E-06    -49.4858E-06    -49.5140E-06    -49.4952E-06    -49.5046E-06     99.9999E-06    -7.34848E-09    -1.31089E-09    -12.9283E-09     99.9999E-06     99.9999E-06    -49.4858E-06    -49.5140E-06    -49.4952E-06    -49.5046E-06     99.9999E-06    -7.34848E-09    -1.31089E-09    -12.9283E-09     999.998E-03         1.00001         1.00001     108.785E-06    -79.2792E-06         1.00009    -333.348E-03     999.998E-03     46.2338E-06    -16.7156E-06         1.00001    -24.5769E-06    -4.38426E-06    -43.2386E-06
             386              0.              0.              0.              0.              0.              0.              0.              0.     1.25079E-03    -24.7534E-06    -74.2463E-06     1.24834E-03     100.001E-06     100.001E-06    -49.4946E-06    -49.5066E-06    -49.5008E-06    -49.5004E-06     100.001E-06    -5.49866E-09    -37.1934E-12    -397.287E-12     100.001E-06     100.001E-06    -49.4946E-06    -49.5066E-06    -49.5008E-06    -49.5004E-06     100.001E-06    -5.49866E-09    -37.1934E-12    -397.287E-12         1.00001         1.00001         1.00001     34.2839E-06    -45.7958E-06         1.00005    -333.332E-03         1.00001    -7.27654E-06    -4.23323E-06         1.00001    -18.3902E-06    -124.393E-09    -1.32872E-06
             387              0.              0.              0.              0.              0.              0.              0.              0.     1.24883E-03    -24.7546E-06    -24.7546E-06     1.24834E-03     99.9994E-06     99.9994E-06    -49.4950E-06    -49.5044E-06    -49.4997E-06    -49.4997E-06     99.9994E-06     1.22575E-09    -805.181E-12    -805.181E-12     99.9994E-06     99.9994E-06    -49.4950E-06    -49.5044E-06    -49.4997E-06    -49.4997E-06     99.9994E-06     1.22575E-09    -805.181E-12    -805.181E-12     999.994E-03         1.00000         1.00000     38.9152E-06    -24.1417E-06         1.00003    -333.339E-03     999.994E-03     7.38791E-06     7.38791E-06         1.00000     4.09949E-06    -2.69291E-06    -2.69291E-06
             388              0.              0.              0.              0.              0.              0.              0.              0.     1.24883E-03    -24.7546E-06     24.7546E-06     1.24834E-03     99.9994E-06     99.9994E-06    -49.4950E-06    -49.5044E-06    -49.4997E-06    -49.4997E-06     99.9994E-06    -1.22575E-09    -805.181E-12     805.181E-12     99.9994E-06     99.9994E-06    -49.4950E-06    -49.5044E-06    -49.4997E-06    -49.4997E-06     99.9994E-06    -1.22575E-09    -805.181E-12     805.181E-12     999.994E-03         1.00000         1.00000     38.9152E-06    -24.1417E-06         1.00003    -333.339E-03     999.994E-03     7.38791E-06     7.38791E-06         1.00000    -4.09949E-06    -2.69291E-06     2.69291E-06
             389              0.              0.              0.              0.              0.              0.              0.              0.     1.25079E-03    -24.7534E-06     74.2463E-06     1.24834E-03     100.001E-06     100.001E-06    -49.4946E-06    -49.5066E-06    -49.5008E-06    -49.5004E-06     100.001E-06     5.49866E-09    -37.1934E-12     397.287E-12     100.001E-06     100.001E-06    -49.4946E-06    -49.5066E-06    -49.5008E-06    -49.5004E-06     100.001E-06     5.49866E-09    -37.1934E-12     397.287E-12         1.00001         1.00001         1.00001     34.2839E-06    -45.7958E-06         1.00005    -333.332E-03         1.00001    -7.27654E-06    -4.23323E-06         1.00001     18.3902E-06    -124.393E-09     1.32872E-06
             390              0.              0.              0.              0.              0.              0.              0.              0.     1.25470E-03    -24.7633E-06     123.756E-06     1.24833E-03     99.9999E-06     99.9999E-06    -49.4858E-06    -49.5140E-06    -49.4952E-06    -49.5046E-06     99.9999E-06     7.34848E-09    -1.31089E-09     12.9283E-09     99.9999E-06     99.9999E-06    -49.4858E-06    -49.5140E-06    -49.4952E-06    -49.5046E-06     99.9999E-06     7.34848E-09    -1.31089E-09     12.9283E-09     999.998E-03         1.00001         1.00001     108.785E-06    -79.2792E-06         1.00009    -333.348E-03     999.998E-03     46.2338E-06    -16.7156E-06         1.00001     24.5769E-06    -4.38426E-06     43.2386E-06
             391              0.              0.              0.              0.              0.              0.              0.              0.     1.15527E-03    -24.7284E-06    -123.740E-06     1.14835E-03     99.9993E-06     99.9993E-06    -49.4771E-06    -49.5222E-06    -49.5080E-06    -49.4914E-06     99.9993E-06     10.7729E-09     1.61540E-09     22.9643E-09     99.9993E-06     99.9993E-06    -49.4771E-06    -49.5222E-06    -49.5080E-06    -49.4914E-06     99.9993E-06     10.7729E-09     1.61540E-09     22.9643E-09     999.993E-03     999.972E-03     999.972E-03     129.186E-06    -172.426E-06         1.00014    -333.309E-03     999.993E-03    -77.0705E-06     33.8648E-06     999.972E-03     36.0298E-06     5.40268E-06     76.8036E-06
             392              0.              0.              0.              0.              0.              0.              0.              0.     1.15100E-03    -24.7430E-06    -74.2568E-06     1.14834E-03     99.9973E-06     99.9973E-06    -49.4884E-06    -49.5089E-06    -49.4981E-06    -49.4992E-06     99.9973E-06     8.53973E-09    -339.948E-12     239.846E-12     99.9973E-06     99.9973E-06    -49.4884E-06    -49.5089E-06    -49.4981E-06    -49.4992E-06     99.9973E-06     8.53973E-09    -339.948E-12     239.846E-12     999.973E-03     999.990E-03     999.990E-03     85.7993E-06    -51.5170E-06         1.00004    -333.342E-03     999.973E-03     20.9188E-06     13.3706E-06     999.990E-03     28.5610E-06    -1.13695E-06     802.160E-09
             393              0.              0.              0.              0.              0.              0.              0.              0.     1.14888E-03    -24.7417E-06    -24.7417E-06     1.14834E-03     100.000E-06     100.000E-06    -49.4920E-06    -49.5085E-06    -49.5002E-06    -49.5002E-06     100.000E-06    -1.25619E-09     1.14540E-09     1.14540E-09     100.000E-06     100.000E-06    -49.4920E-06    -49.5085E-06    -49.5002E-06    -49.5002E-06     100.000E-06    -1.25619E-09     1.14540E-09     1.14540E-09         1.00000         1.00000         1.00000     53.1951E-06    -56.8990E-06         1.00006    -333.333E-03         1.00000    -1.84838E-06    -1.84838E-06         1.00000    -4.20131E-06     3.83077E-06     3.83077E-06
             394              0.              0.              0.              0.              0.              0.              0.              0.     1.14888E-03    -24.7417E-06     24.7417E-06     1.14834E-03     100.000E-06     100.000E-06    -49.4920E-06    -49.5085E-06    -49.5002E-06    -49.5002E-06     100.000E-06     1.25619E-09     1.14540E-09    -1.14540E-09     100.000E-06     100.000E-06    -49.4920E-06    -49.5085E-06    -49.5002E-06    -49.5002E-06     100.000E-06     1.25619E-09     1.14540E-09    -1.14540E-09         1.00000         1.00000         1.00000     53.1951E-06    -56.8990E-06         1.00006    -333.333E-03         1.00000    -1.84838E-06    -1.84838E-06         1.00000     4.20131E-06     3.83077E-06    -3.83077E-06
             395              0.              0.              0.              0.              0.              0.              0.              0.     1.15100E-03    -24.7430E-06     74.2568E-06     1.14834E-03     99.9973E-06     99.9973E-06    -49.4884E-06    -49.5089E-06    -49.4981E-06    -49.4992E-06     99.9973E-06    -8.53973E-09    -339.948E-12    -239.846E-12     99.9973E-06     99.9973E-06    -49.4884E-06    -49.5089E-06    -49.4981E-06    -49.4992E-06     99.9973E-06    -8.53973E-09    -339.948E-12    -239.846E-12     999.973E-03     999.990E-03     999.990E-03     85.7993E-06    -51.5170E-06         1.00004    -333.342E-03     999.973E-03     20.9188E-06     13.3706E-06     999.990E-03    -28.5610E-06    -1.13695E-06    -802.160E-09
             396              0.              0.              0.              0.              0.              0.              0.              0.     1.15527E-03    -24.7284E-06     123.740E-06     1.14835E-03     99.9993E-06     99.9993E-06    -49.4771E-06    -49.5222E-06    -49.5080E-06    -49.4914E-06     99.9993E-06    -10.7729E-09     1.61540E-09    -22.9643E-09     99.9993E-06     99.9993E-06    -49.4771E-06    -49.5222E-06    -49.5080E-06    -49.4914E-06     99.9993E-06    -10.7729E-09     1.61540E-09    -22.9643E-09     999.993E-03     999.972E-03     999.972E-03     129.186E-06    -172.426E-06         1.00014    -333.309E-03     999.993E-03    -77.0705E-06     33.8648E-06     999.972E-03    -36.0298E-06     5.40268E-06    -76.8036E-06
             397              0.              0.              0.              0.              0.              0.              0.              0.     1.05589E-03    -24.7834E-06    -123.766E-06     1.04832E-03     99.9984E-06     99.9984E-06    -49.4633E-06    -49.5349E-06    -49.4830E-06    -49.5152E-06     99.9984E-06    -14.5490E-09    -5.82974E-09    -42.6971E-09     99.9984E-06     99.9984E-06    -49.4633E-06    -49.5349E-06    -49.4830E-06    -49.5152E-06     99.9984E-06    -14.5490E-09    -5.82974E-09    -42.6971E-09     999.984E-03         1.00004         1.00004     299.559E-06    -179.758E-06         1.00022    -333.388E-03     999.983E-03     167.522E-06    -47.6201E-06         1.00004    -48.6590E-06    -19.4975E-06    -142.800E-06
             398              0.              0.              0.              0.              0.              0.              0.              0.     1.05126E-03    -24.7624E-06    -74.2360E-06     1.04835E-03     100.002E-06     100.002E-06    -49.4835E-06    -49.5183E-06    -49.5010E-06    -49.5007E-06     100.002E-06    -12.0718E-09    -2.43228E-09    -4.21312E-09     100.002E-06     100.002E-06    -49.4835E-06    -49.5183E-06    -49.5010E-06    -49.5007E-06     100.002E-06    -12.0718E-09    -2.43228E-09    -4.21312E-09         1.00002         1.00001         1.00001     112.492E-06    -120.201E-06         1.00013    -333.335E-03         1.00002    -4.71475E-06    -2.97075E-06         1.00001    -40.3739E-06    -8.13470E-06    -14.0907E-06
             399              0.              0.              0.              0.              0.              0.              0.              0.     1.04892E-03    -24.7638E-06    -24.7638E-06     1.04833E-03     99.9934E-06     99.9934E-06    -49.4824E-06    -49.5109E-06    -49.4967E-06    -49.4967E-06     99.9934E-06     1.40297E-09    -4.64154E-09    -4.64154E-09     99.9934E-06     99.9934E-06    -49.4824E-06    -49.5109E-06    -49.4967E-06    -49.4967E-06     99.9934E-06     1.40297E-09    -4.64154E-09    -4.64154E-09     999.933E-03     999.980E-03     999.980E-03     141.963E-06    -48.2694E-06         1.00003    -333.358E-03     999.933E-03     46.8598E-06     46.8598E-06     999.980E-03     4.69221E-06    -15.5235E-06    -15.5235E-06
             400              0.              0.              0.              0.              0.              0.              0.              0.     1.04892E-03    -24.7638E-06     24.7638E-06     1.04833E-03     99.9934E-06     99.9934E-06    -49.4824E-06    -49.5109E-06    -49.4967E-06    -49.4967E-06     99.9934E-06    -1.40297E-09    -4.64154E-09     4.64154E-09     99.9934E-06     99.9934E-06    -49.4824E-06    -49.5109E-06    -49.4967E-06    -49.4967E-06     99.9934E-06    -1.40297E-09    -4.64154E-09     4.64154E-09     999.933E-03     999.980E-03     999.980E-03     141.963E-06    -48.2694E-06         1.00003    -333.358E-03     999.933E-03     46.8598E-06     46.8598E-06     999.980E-03    -4.69221E-06    -15.5235E-06     15.5235E-06
             401              0.              0.              0.              0.              0.              0.              0.              0.     1.05126E-03    -24.7624E-06     74.2360E-06     1.04835E-03     100.002E-06     100.002E-06    -49.4835E-06    -49.5183E-06    -49.5010E-06    -49.5007E-06     100.002E-06     12.0718E-09    -2.43228E-09     4.21312E-09     100.002E-06     100.002E-06    -49.4835E-06    -49.5183E-06    -49.5010E-06    -49.5007E-06     100.002E-06     12.0718E-09    -2.43228E-09     4.21312E-09         1.00002         1.00001         1.00001     112.492E-06    -120.201E-06         1.00013    -333.335E-03         1.00002    -4.71475E-06    -2.97075E-06         1.00001     40.3739E-06    -8.13470E-06     14.0907E-06
             402              0.              0.              0.              0.              0.              0.              0.              0.     1.05589E-03    -24.7834E-06     123.766E-06     1.04832E-03     99.9984E-06     99.9984E-06    -49.4633E-06    -49.5349E-06    -49.4830E-06    -49.5152E-06     99.9984E-06     14.5490E-09    -5.82974E-09     42.6971E-09     99.9984E-06     99.9984E-06    -49.4633E-06    -49.5349E-06    -49.4830E-06    -49.5152E-06     99.9984E-06     14.5490E-09    -5.82974E-09     42.6971E-09     999.984E-03         1.00004         1.00004     299.559E-06    -179.758E-06         1.00022    -333.388E-03     999.983E-03     167.522E-06    -47.6201E-06         1.00004     48.6590E-06    -19.4975E-06     142.800E-06
             403              0.              0.              0.              0.              0.              0.              0.              0.     956.741E-06    -24.6911E-06    -123.714E-06     948.387E-06     99.9969E-06     99.9969E-06    -49.4401E-06    -49.5569E-06    -49.5223E-06    -49.4747E-06     99.9968E-06     19.4018E-09    -500.032E-12     67.4941E-09     99.9969E-06     99.9969E-06    -49.4401E-06    -49.5569E-06    -49.5223E-06    -49.4747E-06     99.9968E-06     19.4018E-09    -500.032E-12     67.4941E-09     999.969E-03     999.922E-03     999.922E-03     343.207E-06    -437.848E-06         1.00036    -333.276E-03     999.969E-03    -206.480E-06     112.098E-06     999.921E-03     64.8890E-06    -1.67235E-06     225.733E-06
             404              0.              0.              0.              0.              0.              0.              0.              0.     951.558E-06    -24.7209E-06    -74.2656E-06     948.333E-06     99.9863E-06     99.9863E-06    -49.4630E-06    -49.5231E-06    -49.4897E-06    -49.4964E-06     99.9863E-06     17.6542E-09    -4.33615E-09    -9.25320E-09     99.9863E-06     99.9863E-06    -49.4630E-06    -49.5231E-06    -49.4897E-06    -49.4964E-06     99.9863E-06     17.6542E-09    -4.33615E-09    -9.25320E-09     999.862E-03     999.946E-03     999.946E-03     285.419E-06    -116.602E-06         1.00006    -333.372E-03     999.862E-03     106.918E-06     61.9895E-06     999.946E-03     59.0441E-06    -14.5022E-06    -30.9472E-06
             405              0.              0.              0.              0.              0.              0.              0.              0.     949.007E-06    -24.7201E-06    -24.7201E-06     948.363E-06     99.9906E-06     99.9906E-06    -49.4688E-06    -49.5218E-06    -49.4953E-06    -49.4953E-06     99.9906E-06    -759.295E-12    -1.52871E-09    -1.52871E-09     99.9906E-06     99.9906E-06    -49.4688E-06    -49.5218E-06    -49.4953E-06    -49.4953E-06     99.9906E-06    -759.295E-12    -1.52871E-09    -1.52871E-09     999.906E-03     999.932E-03     999.932E-03     203.962E-06    -150.626E-06         1.00008    -333.329E-03     999.906E-03     26.7064E-06     26.7064E-06     999.932E-03    -2.53945E-06    -5.11276E-06    -5.11276E-06
             406              0.              0.              0.              0.              0.              0.              0.              0.     949.007E-06    -24.7201E-06     24.7201E-06     948.363E-06     99.9906E-06     99.9906E-06    -49.4688E-06    -49.5218E-06    -49.4953E-06    -49.4953E-06     99.9906E-06     759.295E-12    -1.52871E-09     1.52871E-09     99.9906E-06     99.9906E-06    -49.4688E-06    -49.5218E-06    -49.4953E-06    -49.4953E-06     99.9906E-06     759.295E-12    -1.52871E-09     1.52871E-09     999.906E-03     999.932E-03     999.932E-03     203.962E-06    -150.626E-06         1.00008    -333.329E-03     999.906E-03     26.7064E-06     26.7064E-06     999.932E-03     2.53945E-06    -5.11276E-06     5.11276E-06
             407              0.              0.              0.              0.              0.              0.              0.              0.     951.558E-06    -24.7209E-06     74.2656E-06     948.333E-06     99.9863E-06     99.9863E-06    -49.4630E-06    -49.5231E-06    -49.4897E-06    -49.4964E-06     99.9863E-06    -17.6542E-09    -4.33615E-09     9.25320E-09     99.9863E-06     99.9863E-06    -49.4630E-06    -49.5231E-06    -49.4897E-06    -49.4964E-06     99.9863E-06    -17.6542E-09    -4.33615E-09     9.25320E-09     999.862E-03     999.946E-03     999.946E-03     285.419E-06    -116.602E-06         1.00006    -333.372E-03     999.862E-03     106.918E-06     61.9895E-06     999.946E-03    -59.0441E-06    -14.5022E-06     30.9472E-06
             408              0.              0.              0.              0.              0.              0.              0.              0.     956.741E-06    -24.6911E-06     123.714E-06     948.387E-06     99.9969E-06     99.9969E-06    -49.4401E-06    -49.5569E-06    -49.5223E-06    -49.4747E-06     99.9968E-06    -19.4018E-09    -500.032E-12    -67.4941E-09     99.9969E-06     99.9969E-06    -49.4401E-06    -49.5569E-06    -49.5223E-06    -49.4747E-06     99.9968E-06    -19.4018E-09    -500.032E-12    -67.4941E-09     999.969E-03     999.922E-03     999.922E-03     343.207E-06    -437.848E-06         1.00036    -333.276E-03     999.969E-03    -206.480E-06     112.098E-06     999.921E-03    -64.8890E-06    -1.67235E-06    -225.733E-06
             409              0.              0.              0.              0.              0.              0.              0.              0.     857.615E-06    -24.8321E-06    -123.794E-06     848.269E-06     99.9992E-06     99.9992E-06    -49.4084E-06    -49.5902E-06    -49.4429E-06    -49.5556E-06     99.9991E-06    -26.4554E-09    -22.1180E-09    -147.097E-09     99.9992E-06     99.9992E-06    -49.4084E-06    -49.5902E-06    -49.4429E-06    -49.5556E-06     99.9991E-06    -26.4554E-09    -22.1180E-09    -147.097E-09     999.991E-03         1.00020         1.00020     814.695E-06    -401.544E-06         1.00060    -333.537E-03     999.988E-03     583.851E-06    -169.881E-06         1.00020    -88.4794E-06    -73.9732E-06    -491.962E-06
             410              0.              0.              0.              0.              0.              0.              0.              0.     851.973E-06    -24.7928E-06    -74.1931E-06     848.374E-06     99.9993E-06     99.9993E-06    -49.4449E-06    -49.5544E-06    -49.4983E-06    -49.5010E-06     99.9993E-06    -27.3826E-09    -13.4372E-09    -27.0689E-09     99.9993E-06     99.9993E-06    -49.4449E-06    -49.5544E-06    -49.4983E-06    -49.5010E-06     99.9993E-06    -27.3826E-09    -13.4372E-09    -27.0689E-09     999.994E-03     999.989E-03     999.989E-03     361.847E-06    -370.609E-06         1.00036    -333.327E-03     999.993E-03     4.90109E-06    -13.3893E-06     999.989E-03    -91.5804E-06    -44.9403E-06    -90.5315E-06
             411              0.              0.              0.              0.              0.              0.              0.              0.     849.072E-06    -24.7900E-06    -24.7900E-06     848.347E-06     99.9609E-06     99.9609E-06    -49.4355E-06    -49.5254E-06    -49.4804E-06    -49.4804E-06     99.9609E-06    -2.81501E-09    -22.8093E-09    -22.8093E-09     99.9609E-06     99.9609E-06    -49.4355E-06    -49.5254E-06    -49.4804E-06    -49.4804E-06     99.9609E-06    -2.81501E-09    -22.8093E-09    -22.8093E-09     999.608E-03     999.757E-03     999.757E-03     449.955E-06    -151.245E-06     999.908E-03    -333.352E-03     999.607E-03     149.488E-06     149.488E-06     999.757E-03    -9.41476E-06    -76.2853E-06    -76.2853E-06
             412              0.              0.              0.              0.              0.              0.              0.              0.     849.072E-06    -24.7900E-06     24.7900E-06     848.347E-06     99.9609E-06     99.9609E-06    -49.4355E-06    -49.5254E-06    -49.4804E-06    -49.4804E-06     99.9609E-06     2.81501E-09    -22.8093E-09     22.8093E-09     99.9609E-06     99.9609E-06    -49.4355E-06    -49.5254E-06    -49.4804E-06    -49.4804E-06     99.9609E-06     2.81501E-09    -22.8093E-09     22.8093E-09     999.608E-03     999.757E-03     999.757E-03     449.955E-06    -151.245E-06     999.908E-03    -333.352E-03     999.607E-03     149.488E-06     149.488E-06     999.757E-03     9.41476E-06    -76.2853E-06     76.2853E-06
             413              0.              0.              0.              0.              0.              0.              0.              0.     851.973E-06    -24.7928E-06     74.1931E-06     848.374E-06     99.9993E-06     99.9993E-06    -49.4449E-06    -49.5544E-06    -49.4983E-06    -49.5010E-06     99.9993E-06     27.3826E-09    -13.4372E-09     27.0689E-09     99.9993E-06     99.9993E-06    -49.4449E-06    -49.5544E-06    -49.4983E-06    -49.5010E-06     99.9993E-06     27.3826E-09    -13.4372E-09     27.0689E-09     999.994E-03     999.989E-03     999.989E-03     361.847E-06    -370.609E-06         1.00036    -333.327E-03     999.993E-03     4.90109E-06    -13.3893E-06     999.989E-03     91.5804E-06    -44.9403E-06     90.5315E-06
             414              0.              0.              0.              0.              0.              0.              0.              0.     857.615E-06    -24.8321E-06     123.794E-06     848.269E-06     99.9992E-06     99.9992E-06    -49.4084E-06    -49.5902E-06    -49.4429E-06    -49.5556E-06     99.9991E-06     26.4554E-09    -22.1180E-09     147.097E-09     99.9992E-06     99.9992E-06    -49.4084E-06    -49.5902E-06    -49.4429E-06    -49.5556E-06     99.9991E-06     26.4554E-09    -22.1180E-09     147.097E-09     999.991E-03         1.00020         1.00020     814.695E-06    -401.544E-06         1.00060    -333.537E-03     999.988E-03     583.851E-06    -169.881E-06         1.00020     88.4794E-06    -73.9732E-06     491.962E-06
             415              0.              0.              0.              0.              0.              0.              0.              0.     759.020E-06    -24.5972E-06    -123.629E-06     748.480E-06     100.015E-06     100.015E-06    -49.3575E-06    -49.6583E-06    -49.5834E-06    -49.4320E-06     100.015E-06     17.1844E-09     3.75640E-09     207.959E-09     100.015E-06     100.015E-06    -49.3575E-06    -49.6583E-06    -49.5834E-06    -49.4320E-06     100.015E-06     17.1844E-09     3.75640E-09     207.959E-09         1.00016     999.899E-03     999.899E-03     751.752E-06    -1.26033E-03         1.00116    -333.130E-03         1.00015    -759.690E-06     253.360E-06     999.897E-03     57.4728E-06     12.5632E-06     695.516E-06
             416              0.              0.              0.              0.              0.              0.              0.              0.     752.419E-06    -24.6487E-06    -74.2894E-06     748.337E-06     99.9603E-06     99.9603E-06    -49.3891E-06    -49.5712E-06    -49.4708E-06    -49.4894E-06     99.9602E-06     22.6900E-09    -3.09375E-09    -37.2875E-09     99.9603E-06     99.9603E-06    -49.3891E-06    -49.5712E-06    -49.4708E-06    -49.4894E-06     99.9602E-06     22.6900E-09    -3.09375E-09    -37.2875E-09     999.603E-03     999.743E-03     999.743E-03     749.888E-06    -468.323E-06         1.00021    -333.341E-03     999.600E-03     203.388E-06     79.1995E-06     999.741E-03     75.8864E-06    -10.3470E-06    -124.707E-06
             417              0.              0.              0.              0.              0.              0.              0.              0.     749.274E-06    -24.6479E-06    -24.6479E-06     748.463E-06     99.9717E-06     99.9717E-06    -49.3996E-06    -49.5729E-06    -49.4862E-06    -49.4862E-06     99.9715E-06    -788.454E-12    -4.62407E-09    -4.62407E-09     99.9717E-06     99.9717E-06    -49.3996E-06    -49.5729E-06    -49.4862E-06    -49.4862E-06     99.9715E-06    -788.454E-12    -4.62407E-09    -4.62407E-09     999.719E-03     999.531E-03     999.531E-03     391.775E-06    -767.383E-06         1.00030    -333.052E-03     999.716E-03    -187.309E-06    -187.309E-06     999.530E-03    -2.63697E-06    -15.4651E-06    -15.4651E-06
             418              0.              0.              0.              0.              0.              0.              0.              0.     749.274E-06    -24.6479E-06     24.6479E-06     748.463E-06     99.9717E-06     99.9717E-06    -49.3996E-06    -49.5729E-06    -49.4862E-06    -49.4862E-06     99.9715E-06     788.454E-12    -4.62407E-09     4.62407E-09     99.9717E-06     99.9717E-06    -49.3996E-06    -49.5729E-06    -49.4862E-06    -49.4862E-06     99.9715E-06     788.454E-12    -4.62407E-09     4.62407E-09     999.719E-03     999.531E-03     999.531E-03     391.775E-06    -767.383E-06         1.00030    -333.052E-03     999.716E-03    -187.309E-06    -187.309E-06     999.530E-03     2.63697E-06    -15.4651E-06     15.4651E-06
             419              0.              0.              0.              0.              0.              0.              0.              0.     752.419E-06    -24.6487E-06     74.2894E-06     748.337E-06     99.9603E-06     99.9603E-06    -49.3891E-06    -49.5712E-06    -49.4708E-06    -49.4894E-06     99.9602E-06    -22.6900E-09    -3.09375E-09     37.2875E-09     99.9603E-06     99.9603E-06    -49.3891E-06    -49.5712E-06    -49.4708E-06    -49.4894E-06     99.9602E-06    -22.6900E-09    -3.09375E-09     37.2875E-09     999.603E-03     999.743E-03     999.743E-03     749.888E-06    -468.323E-06         1.00021    -333.341E-03     999.600E-03     203.388E-06     79.1995E-06     999.741E-03    -75.8864E-06    -10.3470E-06     124.707E-06
             420              0.              0.              0.              0.              0.              0.              0.              0.     759.020E-06    -24.5972E-06     123.629E-06     748.480E-06     100.015E-06     100.015E-06    -49.3575E-06    -49.6583E-06    -49.5834E-06    -49.4320E-06     100.015E-06    -17.1844E-09     3.75640E-09    -207.959E-09     100.015E-06     100.015E-06    -49.3575E-06    -49.6583E-06    -49.5834E-06    -49.4320E-06     100.015E-06    -17.1844E-09     3.75640E-09    -207.959E-09         1.00016     999.899E-03     999.899E-03     751.752E-06    -1.26033E-03         1.00116    -333.130E-03         1.00015    -759.690E-06     253.360E-06     999.897E-03    -57.4728E-06     12.5632E-06    -695.516E-06
             421              0.              0.              0.              0.              0.              0.              0.              0.     660.270E-06    -24.9909E-06    -123.924E-06     648.054E-06     100.081E-06     100.081E-06    -49.3028E-06    -49.7771E-06    -49.3847E-06    -49.6943E-06     100.080E-06    -43.9733E-09     15.8383E-09    -438.814E-09     100.081E-06     100.081E-06    -49.3028E-06    -49.7771E-06    -49.3847E-06    -49.6943E-06     100.080E-06    -43.9733E-09     15.8383E-09    -438.814E-09         1.00081         1.00092         1.00092     1.69940E-03    -1.47366E-03         1.00240    -333.716E-03         1.00080     1.15112E-03    -919.737E-06         1.00092    -147.068E-06     52.9708E-06    -1.46760E-03
             422              0.              0.              0.              0.              0.              0.              0.              0.     653.152E-06    -24.9346E-06    -74.1022E-06     648.456E-06     100.073E-06     100.073E-06    -49.3571E-06    -49.7177E-06    -49.5548E-06    -49.5194E-06     100.073E-06    -67.5525E-09     22.9844E-09     8.31331E-09     100.073E-06     100.073E-06    -49.3571E-06    -49.7177E-06    -49.5548E-06    -49.5194E-06     100.073E-06    -67.5525E-09     22.9844E-09     8.31331E-09         1.00074     999.981E-03     999.981E-03     447.044E-06    -1.96473E-03         1.00195    -332.821E-03         1.00073    -875.450E-06    -638.827E-06     999.977E-03    -225.928E-06     76.8708E-06     27.8038E-06
             423              0.              0.              0.              0.              0.              0.              0.              0.     649.326E-06    -24.9071E-06    -24.9071E-06     648.369E-06     100.003E-06     100.003E-06    -49.3406E-06    -49.6644E-06    -49.5023E-06    -49.5023E-06     100.003E-06    -27.4178E-09    -13.1030E-09    -13.1030E-09     100.003E-06     100.003E-06    -49.3406E-06    -49.6644E-06    -49.5023E-06    -49.5023E-06     100.003E-06    -27.4178E-09    -13.1030E-09    -13.1030E-09         1.00004     999.359E-03     999.359E-03     405.416E-06    -1.76051E-03         1.00112    -332.668E-03         1.00003    -676.410E-06    -676.410E-06     999.357E-03    -91.6984E-06    -43.8229E-06    -43.8229E-06
             424              0.              0.              0.              0.              0.              0.              0.              0.     649.326E-06    -24.9071E-06     24.9071E-06     648.369E-06     100.003E-06     100.003E-06    -49.3406E-06    -49.6644E-06    -49.5023E-06    -49.5023E-06     100.003E-06     27.4178E-09    -13.1030E-09     13.1030E-09     100.003E-06     100.003E-06    -49.3406E-06    -49.6644E-06    -49.5023E-06    -49.5023E-06     100.003E-06     27.4178E-09    -13.1030E-09     13.1030E-09         1.00004     999.359E-03     999.359E-03     405.416E-06    -1.76051E-03         1.00112    -332.668E-03         1.00003    -676.410E-06    -676.410E-06     999.357E-03     91.6984E-06    -43.8229E-06     43.8229E-06
             425              0.              0.              0.              0.              0.              0.              0.              0.     653.152E-06    -24.9346E-06     74.1022E-06     648.456E-06     100.073E-06     100.073E-06    -49.3571E-06    -49.7177E-06    -49.5548E-06    -49.5194E-06     100.073E-06     67.5525E-09     22.9844E-09    -8.31331E-09     100.073E-06     100.073E-06    -49.3571E-06    -49.7177E-06    -49.5548E-06    -49.5194E-06     100.073E-06     67.5525E-09     22.9844E-09    -8.31331E-09         1.00074     999.981E-03     999.981E-03     447.044E-06    -1.96473E-03         1.00195    -332.821E-03         1.00073    -875.450E-06    -638.827E-06     999.977E-03     225.928E-06     76.8708E-06    -27.8038E-06
             426              0.              0.              0.              0.              0.              0.              0.              0.     660.270E-06    -24.9909E-06     123.924E-06     648.054E-06     100.081E-06     100.081E-06    -49.3028E-06    -49.7771E-06    -49.3847E-06    -49.6943E-06     100.080E-06     43.9733E-09     15.8383E-09     438.814E-09     100.081E-06     100.081E-06    -49.3028E-06    -49.7771E-06    -49.3847E-06    -49.6943E-06     100.080E-06     43.9733E-09     15.8383E-09     438.814E-09         1.00081         1.00092         1.00092     1.69940E-03    -1.47366E-03         1.00240    -333.716E-03         1.00080     1.15112E-03    -919.737E-06         1.00092     147.068E-06     52.9708E-06     1.46760E-03
             427              0.              0.              0.              0.              0.              0.              0.              0.     562.850E-06    -24.4981E-06    -123.554E-06     548.575E-06     100.245E-06     100.245E-06    -49.2422E-06    -50.0076E-06    -50.0014E-06    -49.2445E-06     100.241E-06    -47.5316E-09     285.045E-09     900.727E-09     100.245E-06     100.245E-06    -49.2422E-06    -50.0076E-06    -50.0014E-06    -49.2445E-06     100.241E-06    -47.5316E-09     285.045E-09     900.727E-09         1.00249     999.889E-03     999.889E-03    -22.4145E-06    -5.14226E-03         1.00503    -331.575E-03         1.00244    -5.10034E-03    -37.5116E-06     999.862E-03    -158.968E-06     953.327E-06     3.01247E-03
             428              0.              0.              0.              0.              0.              0.              0.              0.     553.770E-06    -24.5429E-06    -74.6213E-06     548.170E-06     100.156E-06     100.156E-06    -49.2705E-06    -49.8891E-06    -49.6329E-06    -49.5250E-06     100.154E-06    -16.1963E-09     250.169E-09     308.602E-09     100.156E-06     100.156E-06    -49.2705E-06    -49.8891E-06    -49.6329E-06    -49.5250E-06     100.154E-06    -16.1963E-09     250.169E-09     308.602E-09         1.00159     999.825E-03     999.825E-03     316.859E-06    -3.82092E-03         1.00365    -332.107E-03         1.00156    -2.10736E-03    -1.38557E-03     999.814E-03    -54.1683E-06     836.686E-06     1.03211E-03
             429              0.              0.              0.              0.              0.              0.              0.              0.     549.559E-06    -24.5355E-06    -24.5355E-06     548.463E-06     100.496E-06     100.496E-06    -49.4956E-06    -50.0077E-06    -49.7505E-06    -49.7505E-06     100.494E-06    -7.40043E-09     252.503E-09     252.503E-09     100.496E-06     100.496E-06    -49.4956E-06    -50.0077E-06    -49.7505E-06    -49.7505E-06     100.494E-06    -7.40043E-09     252.503E-09     252.503E-09         1.00501         1.00097         1.00097    -2.31871E-03    -5.74384E-03         1.00672    -330.970E-03         1.00499    -4.02374E-03    -4.02374E-03         1.00096    -24.7506E-06     844.491E-06     844.491E-06
             430              0.              0.              0.              0.              0.              0.              0.              0.     549.559E-06    -24.5355E-06     24.5355E-06     548.463E-06     100.496E-06     100.496E-06    -49.4956E-06    -50.0077E-06    -49.7505E-06    -49.7505E-06     100.494E-06     7.40043E-09     252.503E-09    -252.503E-09     100.496E-06     100.496E-06    -49.4956E-06    -50.0077E-06    -49.7505E-06    -49.7505E-06     100.494E-06     7.40043E-09     252.503E-09    -252.503E-09         1.00501         1.00097         1.00097    -2.31871E-03    -5.74384E-03         1.00672    -330.970E-03         1.00499    -4.02374E-03    -4.02374E-03         1.00096     24.7506E-06     844.491E-06    -844.491E-06
             431              0.              0.              0.              0.              0.              0.              0.              0.     553.770E-06    -24.5429E-06     74.6213E-06     548.170E-06     100.156E-06     100.156E-06    -49.2705E-06    -49.8891E-06    -49.6329E-06    -49.5250E-06     100.154E-06     16.1963E-09     250.169E-09    -308.602E-09     100.156E-06     100.156E-06    -49.2705E-06    -49.8891E-06    -49.6329E-06    -49.5250E-06     100.154E-06     16.1963E-09     250.169E-09    -308.602E-09         1.00159     999.825E-03     999.825E-03     316.859E-06    -3.82092E-03         1.00365    -332.107E-03         1.00156    -2.10736E-03    -1.38557E-03     999.814E-03     54.1683E-06     836.686E-06    -1.03211E-03
             432              0.              0.              0.              0.              0.              0.              0.              0.     562.850E-06    -24.4981E-06     123.554E-06     548.575E-06     100.245E-06     100.245E-06    -49.2422E-06    -50.0076E-06    -50.0014E-06    -49.2445E-06     100.241E-06     47.5316E-09     285.045E-09    -900.727E-09     100.245E-06     100.245E-06    -49.2422E-06    -50.0076E-06    -50.0014E-06    -49.2445E-06     100.241E-06     47.5316E-09     285.045E-09    -900.727E-09         1.00249     999.889E-03     999.889E-03    -22.4145E-06    -5.14226E-03         1.00503    -331.575E-03         1.00244    -5.10034E-03    -37.5116E-06     999.862E-03     158.968E-06     953.327E-06    -3.01247E-03
             433              0.              0.              0.              0.              0.              0.              0.              0.     464.791E-06    -25.7535E-06    -124.915E-06     446.949E-06     100.529E-06     100.529E-06    -49.0648E-06    -50.4694E-06    -49.6615E-06    -49.8675E-06     100.523E-06     39.5885E-09     824.613E-09    -656.268E-09     100.529E-06     100.529E-06    -49.0648E-06    -50.4694E-06    -49.6615E-06    -49.8675E-06     100.523E-06     39.5885E-09     824.613E-09    -656.268E-09         1.00536         1.00167         1.00167     1.04058E-03    -8.35453E-03         1.01002    -331.450E-03         1.00525    -2.95063E-03    -4.32822E-03         1.00163     132.403E-06     2.75790E-03    -2.19488E-03
             434              0.              0.              0.              0.              0.              0.              0.              0.     455.012E-06    -25.7297E-06    -74.6069E-06     448.115E-06     101.041E-06     101.041E-06    -49.3815E-06    -50.6719E-06    -50.3063E-06    -49.7351E-06     101.029E-06    -32.6045E-09     710.070E-09     1.40289E-06     101.041E-06     101.041E-06    -49.3815E-06    -50.6719E-06    -50.3063E-06    -49.7351E-06     101.029E-06    -32.6045E-09     710.070E-09     1.40289E-06         1.01053         1.00288         1.00288    -3.29314E-03    -11.9246E-03         1.01480    -329.220E-03         1.01041    -9.47924E-03    -5.65799E-03         1.00280    -109.045E-06     2.37481E-03     4.69195E-03
             435              0.              0.              0.              0.              0.              0.              0.              0.     448.513E-06    -25.7049E-06    -25.7049E-06     447.037E-06     101.718E-06     101.718E-06    -49.7302E-06    -50.9981E-06    -50.3612E-06    -50.3612E-06     101.712E-06    -24.8153E-09     753.882E-09     753.882E-09     101.718E-06     101.718E-06    -49.7302E-06    -50.9981E-06    -50.3612E-06    -50.3612E-06     101.712E-06    -24.8153E-09     753.882E-09     753.882E-09         1.01733         1.00818         1.00818    -4.85322E-03    -13.3342E-03         1.02151    -329.998E-03         1.01717    -9.07414E-03    -9.07414E-03         1.00814    -82.9944E-06     2.52134E-03     2.52134E-03
             436              0.              0.              0.              0.              0.              0.              0.              0.     448.513E-06    -25.7049E-06     25.7049E-06     447.037E-06     101.718E-06     101.718E-06    -49.7302E-06    -50.9981E-06    -50.3612E-06    -50.3612E-06     101.712E-06     24.8153E-09     753.882E-09    -753.882E-09     101.718E-06     101.718E-06    -49.7302E-06    -50.9981E-06    -50.3612E-06    -50.3612E-06     101.712E-06     24.8153E-09     753.882E-09    -753.882E-09         1.01733         1.00818         1.00818    -4.85322E-03    -13.3342E-03         1.02151    -329.998E-03         1.01717    -9.07414E-03    -9.07414E-03         1.00814     82.9944E-06     2.52134E-03    -2.52134E-03
             437              0.              0.              0.              0.              0.              0.              0.              0.     455.012E-06    -25.7297E-06     74.6069E-06     448.115E-06     101.041E-06     101.041E-06    -49.3815E-06    -50.6719E-06    -50.3063E-06    -49.7351E-06     101.029E-06     32.6045E-09     710.070E-09    -1.40289E-06     101.041E-06     101.041E-06    -49.3815E-06    -50.6719E-06    -50.3063E-06    -49.7351E-06     101.029E-06     32.6045E-09     710.070E-09    -1.40289E-06         1.01053         1.00288         1.00288    -3.29314E-03    -11.9246E-03         1.01480    -329.220E-03         1.01041    -9.47924E-03    -5.65799E-03         1.00280     109.045E-06     2.37481E-03    -4.69195E-03
             438              0.              0.              0.              0.              0.              0.              0.              0.     464.791E-06    -25.7535E-06     124.915E-06     446.949E-06     100.529E-06     100.529E-06    -49.0648E-06    -50.4694E-06    -49.6615E-06    -49.8675E-06     100.523E-06    -39.5885E-09     824.613E-09     656.268E-09     100.529E-06     100.529E-06    -49.0648E-06    -50.4694E-06    -49.6615E-06    -49.8675E-06     100.523E-06    -39.5885E-09     824.613E-09     656.268E-09         1.00536         1.00167         1.00167     1.04058E-03    -8.35453E-03         1.01002    -331.450E-03         1.00525    -2.95063E-03    -4.32822E-03         1.00163    -132.403E-06     2.75790E-03     2.19488E-03
             439              0.              0.              0.              0.              0.              0.              0.              0.     370.856E-06    -25.0149E-06    -124.573E-06     348.411E-06     100.625E-06     100.625E-06    -47.7448E-06    -51.9150E-06    -51.8978E-06    -47.6996E-06     100.562E-06     55.1309E-09     2.07147E-06     4.75960E-06     100.625E-06     100.625E-06    -47.7448E-06    -51.9150E-06    -51.8978E-06    -47.6996E-06     100.562E-06     55.1309E-09     2.07147E-06     4.75960E-06         1.00670     992.514E-03     992.514E-03     76.7274E-06    -27.8174E-03         1.02033    -321.591E-03         1.00575    -27.7026E-03     378.874E-06     992.097E-03     184.384E-06     6.92800E-03     15.9184E-03
             440              0.              0.              0.              0.              0.              0.              0.              0.     355.302E-06    -24.8379E-06    -77.5150E-06     345.852E-06     102.012E-06     102.012E-06    -49.1095E-06    -51.9190E-06    -51.0982E-06    -49.8895E-06     101.972E-06     138.906E-09     1.90095E-06     3.84566E-06     102.012E-06     102.012E-06    -49.1095E-06    -51.9190E-06    -51.0982E-06    -49.8895E-06     101.972E-06     138.906E-09     1.90095E-06     3.84566E-06         1.02042         1.00812         1.00812    -2.72737E-03    -21.5198E-03         1.02964    -327.958E-03         1.01989    -16.0293E-03    -7.94458E-03         1.00785     464.570E-06     6.35769E-03     12.8617E-03
             441              0.              0.              0.              0.              0.              0.              0.              0.     346.431E-06    -24.9652E-06    -24.9652E-06     344.627E-06     105.084E-06     105.084E-06    -51.3588E-06    -52.7331E-06    -52.0269E-06    -52.0269E-06     105.046E-06     127.339E-09     2.37333E-06     2.37333E-06     105.084E-06     105.084E-06    -51.3588E-06    -52.7331E-06    -52.0269E-06    -52.0269E-06     105.046E-06     127.339E-09     2.37333E-06     2.37333E-06         1.05109         1.03136         1.03136    -15.0766E-03    -24.2690E-03         1.05563    -330.673E-03         1.05093    -19.5452E-03    -19.5452E-03         1.03111     425.883E-06     7.93755E-03     7.93755E-03
             442              0.              0.              0.              0.              0.              0.              0.              0.     346.431E-06    -24.9652E-06     24.9652E-06     344.627E-06     105.084E-06     105.084E-06    -51.3588E-06    -52.7331E-06    -52.0269E-06    -52.0269E-06     105.046E-06    -127.339E-09     2.37333E-06    -2.37333E-06     105.084E-06     105.084E-06    -51.3588E-06    -52.7331E-06    -52.0269E-06    -52.0269E-06     105.046E-06    -127.339E-09     2.37333E-06    -2.37333E-06         1.05109         1.03136         1.03136    -15.0766E-03    -24.2690E-03         1.05563    -330.673E-03         1.05093    -19.5452E-03    -19.5452E-03         1.03111    -425.883E-06     7.93755E-03    -7.93755E-03
             443              0.              0.              0.              0.              0.              0.              0.              0.     355.302E-06    -24.8379E-06     77.5150E-06     345.852E-06     102.012E-06     102.012E-06    -49.1095E-06    -51.9190E-06    -51.0982E-06    -49.8895E-06     101.972E-06    -138.906E-09     1.90095E-06    -3.84566E-06     102.012E-06     102.012E-06    -49.1095E-06    -51.9190E-06    -51.0982E-06    -49.8895E-06     101.972E-06    -138.906E-09     1.90095E-06    -3.84566E-06         1.02042         1.00812         1.00812    -2.72737E-03    -21.5198E-03         1.02964    -327.958E-03         1.01989    -16.0293E-03    -7.94458E-03         1.00785    -464.570E-06     6.35769E-03    -12.8617E-03
             444              0.              0.              0.              0.              0.              0.              0.              0.     370.856E-06    -25.0149E-06     124.573E-06     348.411E-06     100.625E-06     100.625E-06    -47.7448E-06    -51.9150E-06    -51.8978E-06    -47.6996E-06     100.562E-06    -55.1309E-09     2.07147E-06    -4.75960E-06     100.625E-06     100.625E-06    -47.7448E-06    -51.9150E-06    -51.8978E-06    -47.6996E-06     100.562E-06    -55.1309E-09     2.07147E-06    -4.75960E-06         1.00670     992.514E-03     992.514E-03     76.7274E-06    -27.8174E-03         1.02033    -321.591E-03         1.00575    -27.7026E-03     378.874E-06     992.097E-03    -184.384E-06     6.92800E-03    -15.9184E-03
             445              0.              0.              0.              0.              0.              0.              0.              0.     278.046E-06    -28.0306E-06    -129.318E-06     244.542E-06     99.3212E-06     99.3212E-06    -46.9995E-06    -51.3525E-06    -49.7686E-06    -48.4841E-06     99.2220E-06     1.27174E-06     3.36594E-06     315.418E-09     99.3212E-06     99.3212E-06    -46.9995E-06    -51.3525E-06    -49.7686E-06    -48.4841E-06     99.2220E-06     1.27174E-06     3.36594E-06     315.418E-09     993.625E-03     985.282E-03     985.282E-03     6.54857E-03    -22.5687E-03         1.00785    -323.087E-03     992.626E-03    -11.9738E-03    -3.38235E-03     984.618E-03     4.25331E-03     11.2573E-03     1.05491E-03
             446              0.              0.              0.              0.              0.              0.              0.              0.     257.875E-06    -28.2578E-06    -78.5145E-06     244.001E-06     104.434E-06     104.434E-06    -49.3299E-06    -54.1134E-06    -52.7874E-06    -50.4556E-06     104.234E-06     1.60627E-06     2.90619E-06     8.11394E-06     104.434E-06     104.434E-06    -49.3299E-06    -54.1134E-06    -52.7874E-06    -50.4556E-06     104.234E-06     1.60627E-06     2.90619E-06     8.11394E-06         1.04493         1.02668         1.02668    -1.83742E-03    -33.8341E-03         1.06052    -330.338E-03         1.04370    -24.9649E-03    -9.36738E-03         1.02535     5.37214E-03     9.71971E-03     27.1369E-03
             447              0.              0.              0.              0.              0.              0.              0.              0.     238.974E-06    -29.2262E-06    -29.2262E-06     235.372E-06     109.541E-06     109.541E-06    -51.7570E-06    -56.7258E-06    -54.1548E-06    -54.1548E-06     109.368E-06     968.434E-09     4.37597E-06     4.37597E-06     109.541E-06     109.541E-06    -51.7570E-06    -56.7258E-06    -54.1548E-06    -54.1548E-06     109.368E-06     968.434E-09     4.37597E-06     4.37597E-06         1.09618         1.08299         1.08299     4.08002E-03    -29.1562E-03         1.11215    -352.640E-03         1.09424    -11.9587E-03    -11.9587E-03         1.08184     3.23891E-03     14.6354E-03     14.6354E-03
             448              0.              0.              0.              0.              0.              0.              0.              0.     238.974E-06    -29.2262E-06     29.2262E-06     235.372E-06     109.541E-06     109.541E-06    -51.7570E-06    -56.7258E-06    -54.1548E-06    -54.1548E-06     109.368E-06    -968.434E-09     4.37597E-06    -4.37597E-06     109.541E-06     109.541E-06    -51.7570E-06    -56.7258E-06    -54.1548E-06    -54.1548E-06     109.368E-06    -968.434E-09     4.37597E-06    -4.37597E-06         1.09618         1.08299         1.08299     4.08002E-03    -29.1562E-03         1.11215    -352.640E-03         1.09424    -11.9587E-03    -11.9587E-03         1.08184    -3.23891E-03     14.6354E-03    -14.6354E-03
             449              0.              0.              0.              0.              0.              0.              0.              0.     257.875E-06    -28.2578E-06     78.5145E-06     244.001E-06     104.434E-06     104.434E-06    -49.3299E-06    -54.1134E-06    -52.7874E-06    -50.4556E-06     104.234E-06    -1.60627E-06     2.90619E-06    -8.11394E-06     104.434E-06     104.434E-06    -49.3299E-06    -54.1134E-06    -52.7874E-06    -50.4556E-06     104.234E-06    -1.60627E-06     2.90619E-06    -8.11394E-06         1.04493         1.02668         1.02668    -1.83742E-03    -33.8341E-03         1.06052    -330.338E-03         1.04370    -24.9649E-03    -9.36738E-03         1.02535    -5.37214E-03     9.71971E-03    -27.1369E-03
             450              0.              0.              0.              0.              0.              0.              0.              0.     278.046E-06    -28.0306E-06     129.318E-06     244.542E-06     99.3212E-06     99.3212E-06    -46.9995E-06    -51.3525E-06    -49.7686E-06    -48.4841E-06     99.2220E-06    -1.27174E-06     3.36594E-06    -315.418E-09     99.3212E-06     99.3212E-06    -46.9995E-06    -51.3525E-06    -49.7686E-06    -48.4841E-06     99.2220E-06    -1.27174E-06     3.36594E-06    -315.418E-09     993.625E-03     985.282E-03     985.282E-03     6.54857E-03    -22.5687E-03         1.00785    -323.087E-03     992.626E-03    -11.9738E-03    -3.38235E-03     984.618E-03    -4.25331E-03     11.2573E-03    -1.05491E-03
             451              0.              0.              0.              0.              0.              0.              0.              0.     199.786E-06    -24.5998E-06    -124.122E-06     154.605E-06     91.4259E-06     91.4259E-06    -38.8842E-06    -51.6078E-06    -51.1551E-06    -38.8649E-06     90.9538E-06     3.23338E-06    -567.528E-09     14.5747E-06     91.4259E-06     91.4259E-06    -38.8842E-06    -51.6078E-06    -51.1551E-06    -38.8649E-06     90.9538E-06     3.23338E-06    -567.528E-09     14.5747E-06     917.356E-03     920.755E-03     920.755E-03     49.1161E-03    -35.9912E-03     956.747E-03    -311.293E-03     907.798E-03    -32.9633E-03     49.2456E-03     917.598E-03     10.8140E-03    -1.89809E-03     48.7447E-03
             452              0.              0.              0.              0.              0.              0.              0.              0.     162.397E-06    -23.8820E-06    -84.5729E-06     136.565E-06     102.976E-06     102.976E-06    -45.4956E-06    -56.3644E-06    -51.7406E-06    -49.5594E-06     102.416E-06     2.77315E-06    -663.198E-09     3.78451E-06     102.976E-06     102.976E-06    -45.4956E-06    -56.3644E-06    -51.7406E-06    -49.5594E-06     102.416E-06     2.77315E-06    -663.198E-09     3.78451E-06         1.03161         1.05817         1.05817     65.0483E-03    -7.65280E-03         1.06582    -371.854E-03         1.02515     23.2758E-03     37.8662E-03         1.05442     9.27475E-03    -2.21805E-03     12.6572E-03
             453              0.              0.              0.              0.              0.              0.              0.              0.     130.248E-06    -25.0881E-06    -25.0881E-06     125.323E-06     102.831E-06     102.831E-06    -48.1091E-06    -53.4116E-06    -50.7044E-06    -50.7044E-06     102.720E-06     1.20601E-06    -63.7566E-09    -63.7566E-09     102.831E-06     102.831E-06    -48.1091E-06    -53.4116E-06    -50.7044E-06    -50.7044E-06     102.720E-06     1.20601E-06    -63.7566E-09    -63.7566E-09         1.02811         1.12181         1.12181     112.178E-03     76.7095E-03         1.04510    -436.900E-03         1.02588     94.8175E-03     94.8175E-03         1.12106     4.03347E-03    -213.233E-06    -213.233E-06
             454              0.              0.              0.              0.              0.              0.              0.              0.     130.248E-06    -25.0881E-06     25.0881E-06     125.323E-06     102.831E-06     102.831E-06    -48.1091E-06    -53.4116E-06    -50.7044E-06    -50.7044E-06     102.720E-06    -1.20601E-06    -63.7566E-09     63.7566E-09     102.831E-06     102.831E-06    -48.1091E-06    -53.4116E-06    -50.7044E-06    -50.7044E-06     102.720E-06    -1.20601E-06    -63.7566E-09     63.7566E-09         1.02811         1.12181         1.12181     112.178E-03     76.7095E-03         1.04510    -436.900E-03         1.02588     94.8175E-03     94.8175E-03         1.12106    -4.03347E-03    -213.233E-06     213.233E-06
             455              0.              0.              0.              0.              0.              0.              0.              0.     162.397E-06    -23.8820E-06     84.5729E-06     136.565E-06     102.976E-06     102.976E-06    -45.4956E-06    -56.3644E-06    -51.7406E-06    -49.5594E-06     102.416E-06    -2.77315E-06    -663.198E-09    -3.78451E-06     102.976E-06     102.976E-06    -45.4956E-06    -56.3644E-06    -51.7406E-06    -49.5594E-06     102.416E-06    -2.77315E-06    -663.198E-09    -3.78451E-06         1.03161         1.05817         1.05817     65.0483E-03    -7.65280E-03         1.06582    -371.854E-03         1.02515     23.2758E-03     37.8662E-03         1.05442    -9.27475E-03    -2.21805E-03    -12.6572E-03
             456              0.              0.              0.              0.              0.              0.              0.              0.     199.786E-06    -24.5998E-06     124.122E-06     154.605E-06     91.4259E-06     91.4259E-06    -38.8842E-06    -51.6078E-06    -51.1551E-06    -38.8649E-06     90.9538E-06    -3.23338E-06    -567.528E-09    -14.5747E-06     91.4259E-06     91.4259E-06    -38.8842E-06    -51.6078E-06    -51.1551E-06    -38.8649E-06     90.9538E-06    -3.23338E-06    -567.528E-09    -14.5747E-06     917.356E-03     920.755E-03     920.755E-03     49.1161E-03    -35.9912E-03     956.747E-03    -311.293E-03     907.798E-03    -32.9633E-03     49.2456E-03     917.598E-03    -10.8140E-03    -1.89809E-03    -48.7447E-03
             457              0.              0.              0.              0.              0.              0.              0.              0.     139.114E-06    -16.6690E-06    -122.386E-06     64.0037E-06     94.2537E-06     94.2537E-06    -26.6193E-06    -66.1659E-06    -26.3983E-06    -57.5103E-06     85.3771E-06     2.03032E-06    -11.3069E-06    -37.1433E-06     94.2537E-06     94.2537E-06    -26.6193E-06    -66.1659E-06    -26.3983E-06    -57.5103E-06     85.3771E-06     2.03032E-06    -11.3069E-06    -37.1433E-06     969.310E-03         1.11668         1.11668     308.169E-03     43.6434E-03         1.07304    -489.499E-03     877.944E-03     309.647E-03     101.541E-03         1.05731     6.79036E-03    -37.8157E-03    -124.225E-03
             458              0.              0.              0.              0.              0.              0.              0.              0.     70.8647E-06    -16.3623E-06    -56.8012E-06     39.0858E-06     78.6004E-06     78.6004E-06    -28.0832E-06    -48.9114E-06    -27.8702E-06    -45.5354E-06     75.0114E-06     2.57655E-06    -10.8930E-06    -29.3772E-06     78.6004E-06     78.6004E-06    -28.0832E-06    -48.9114E-06    -27.8702E-06    -45.5354E-06     75.0114E-06     2.57655E-06    -10.8930E-06    -29.3772E-06     795.706E-03         1.05743         1.05743     343.830E-03     204.511E-03     852.922E-03    -535.258E-03     756.061E-03     345.255E-03     227.093E-03         1.03343     8.61723E-03    -36.4315E-03    -98.2515E-03
             459              0.              0.              0.              0.              0.              0.              0.              0.     45.7805E-06    -17.8570E-06    -17.8570E-06     38.1852E-06     68.3359E-06     68.3359E-06    -32.0624E-06    -34.4930E-06    -32.7367E-06    -32.7367E-06     67.2539E-06     1.49474E-06    -12.0937E-06    -12.0937E-06     68.3359E-06     68.3359E-06    -32.0624E-06    -34.4930E-06    -32.7367E-06    -32.7367E-06     67.2539E-06     1.49474E-06    -12.0937E-06    -12.0937E-06     679.871E-03         1.04661         1.04661     375.053E-03     358.795E-03     687.819E-03    -593.487E-03     679.327E-03     370.543E-03     370.543E-03         1.03938     4.99912E-03    -40.4472E-03    -40.4472E-03
             460              0.              0.              0.              0.              0.              0.              0.              0.     45.7805E-06    -17.8570E-06     17.8570E-06     38.1852E-06     68.3359E-06     68.3359E-06    -32.0624E-06    -34.4930E-06    -32.7367E-06    -32.7367E-06     67.2539E-06    -1.49474E-06    -12.0937E-06     12.0937E-06     68.3359E-06     68.3359E-06    -32.0624E-06    -34.4930E-06    -32.7367E-06    -32.7367E-06     67.2539E-06    -1.49474E-06    -12.0937E-06     12.0937E-06     679.871E-03         1.04661         1.04661     375.053E-03     358.795E-03     687.819E-03    -593.487E-03     679.327E-03     370.543E-03     370.543E-03         1.03938    -4.99912E-03    -40.4472E-03     40.4472E-03
             461              0.              0.              0.              0.              0.              0.              0.              0.     70.8647E-06    -16.3623E-06     56.8012E-06     39.0858E-06     78.6004E-06     78.6004E-06    -28.0832E-06    -48.9114E-06    -27.8702E-06    -45.5354E-06     75.0114E-06    -2.57655E-06    -10.8930E-06     29.3772E-06     78.6004E-06     78.6004E-06    -28.0832E-06    -48.9114E-06    -27.8702E-06    -45.5354E-06     75.0114E-06    -2.57655E-06    -10.8930E-06     29.3772E-06     795.706E-03         1.05743         1.05743     343.830E-03     204.511E-03     852.922E-03    -535.258E-03     756.061E-03     345.255E-03     227.093E-03         1.03343    -8.61723E-03    -36.4315E-03     98.2515E-03
             462              0.              0.              0.              0.              0.              0.              0.              0.     139.114E-06    -16.6690E-06     122.386E-06     64.0037E-06     94.2537E-06     94.2537E-06    -26.6193E-06    -66.1659E-06    -26.3983E-06    -57.5103E-06     85.3771E-06    -2.03032E-06    -11.3069E-06     37.1433E-06     94.2537E-06     94.2537E-06    -26.6193E-06    -66.1659E-06    -26.3983E-06    -57.5103E-06     85.3771E-06    -2.03032E-06    -11.3069E-06     37.1433E-06     969.310E-03         1.11668         1.11668     308.169E-03     43.6434E-03         1.07304    -489.499E-03     877.944E-03     309.647E-03     101.541E-03         1.05731    -6.79036E-03    -37.8157E-03     124.225E-03
             463     751.097E-03     56.0420E-03     398.310E-03    -634.315E-03     751.097E-03     56.0420E-03     398.310E-03    -634.315E-03              0.    -56.0420E-39    -398.310E-39     634.315E-39     80.9186E-06     80.9186E-06    -20.6402E-06    -58.1952E-06    -20.6402E-06    -20.6402E-06     43.3635E-06     30.3046E-21    -16.6690E-06    -122.386E-06     80.9186E-06     80.9186E-06    -20.6402E-06    -58.1952E-06    -20.6402E-06    -20.6402E-06     43.3635E-06     30.3046E-21    -16.6690E-06    -122.386E-06     833.806E-03         1.23102         1.23102     551.697E-03     300.492E-03     930.527E-03    -694.403E-03     741.218E-03     551.697E-03     551.697E-03     979.815E-03     100.682E-18    -55.7490E-03    -409.318E-03
             464     844.425E-03     117.418E-03     176.806E-03    -817.317E-03     844.425E-03     117.418E-03     176.806E-03    -817.317E-03              0.    -117.418E-39    -176.806E-39     817.317E-39     42.6046E-06     42.6046E-06    -12.3706E-06    -28.2601E-06    -12.3706E-06    -12.3706E-06     26.7152E-06    -3.27564E-21    -16.3623E-06    -56.8012E-06     42.6046E-06     42.6046E-06    -12.3706E-06    -28.2601E-06    -12.3706E-06    -12.3706E-06     26.7152E-06    -3.27564E-21    -16.3623E-06    -56.8012E-06     430.817E-03     938.554E-03     938.554E-03     570.827E-03     464.543E-03     474.011E-03    -657.975E-03     399.691E-03     570.827E-03     570.827E-03     832.270E-03    -10.7607E-18    -54.7233E-03    -189.971E-03
             465     839.526E-03     128.156E-03     128.156E-03    -819.729E-03     839.526E-03     128.156E-03     128.156E-03    -819.729E-03              0.    -128.156E-39    -128.156E-39     819.729E-39     29.9423E-06     29.9423E-06    -12.0405E-06    -15.8382E-06    -12.0405E-06    -12.0405E-06     26.1446E-06     3.86332E-21    -17.8570E-06    -17.8570E-06     29.9423E-06     29.9423E-06    -12.0405E-06    -15.8382E-06    -12.0405E-06    -12.0405E-06     26.1446E-06     3.86332E-21    -17.8570E-06    -17.8570E-06     294.346E-03     883.527E-03     883.527E-03     602.705E-03     577.303E-03     306.224E-03    -687.845E-03     291.865E-03     602.705E-03     602.705E-03     858.124E-03     13.3267E-18    -59.7225E-03    -59.7225E-03
             466     839.526E-03     128.156E-03    -128.156E-03    -819.729E-03     839.526E-03     128.156E-03    -128.156E-03    -819.729E-03              0.    -128.156E-39     128.156E-39     819.729E-39     29.9423E-06     29.9423E-06    -12.0405E-06    -15.8382E-06    -12.0405E-06    -12.0405E-06     26.1446E-06    -2.81831E-21    -17.8570E-06     17.8570E-06     29.9423E-06     29.9423E-06    -12.0405E-06    -15.8382E-06    -12.0405E-06    -12.0405E-06     26.1446E-06    -2.81831E-21    -17.8570E-06     17.8570E-06     294.346E-03     883.527E-03     883.527E-03     602.705E-03     577.303E-03     306.224E-03    -687.845E-03     291.865E-03     602.705E-03     602.705E-03     858.124E-03    -9.16002E-18    -59.7225E-03     59.7225E-03
             467     844.425E-03     117.418E-03    -176.806E-03    -817.317E-03     844.425E-03     117.418E-03    -176.806E-03    -817.317E-03              0.    -117.418E-39     176.806E-39     817.317E-39     42.6046E-06     42.6046E-06    -12.3706E-06    -28.2601E-06    -12.3706E-06    -12.3706E-06     26.7152E-06     108.361E-24    -16.3623E-06     56.8012E-06     42.6046E-06     42.6046E-06    -12.3706E-06    -28.2601E-06    -12.3706E-06    -12.3706E-06     26.7152E-06     108.361E-24    -16.3623E-06     56.8012E-06     430.817E-03     938.554E-03     938.554E-03     570.827E-03     464.543E-03     474.011E-03    -657.975E-03     399.691E-03     570.827E-03     570.827E-03     832.270E-03     294.767E-21    -54.7233E-03     189.971E-03
             468     751.097E-03     56.0420E-03    -398.310E-03    -634.315E-03     751.097E-03     56.0420E-03    -398.310E-03    -634.315E-03              0.    -56.0420E-39     398.310E-39     634.315E-39     80.9186E-06     80.9186E-06    -20.6402E-06    -58.1952E-06    -20.6402E-06    -20.6402E-06     43.3635E-06    -7.12037E-21    -16.6690E-06     122.386E-06     80.9186E-06     80.9186E-06    -20.6402E-06    -58.1952E-06    -20.6402E-06    -20.6402E-06     43.3635E-06    -7.12037E-21    -16.6690E-06     122.386E-06     833.806E-03         1.23102         1.23102     551.697E-03     300.492E-03     930.527E-03    -694.403E-03     741.218E-03     551.697E-03     551.697E-03     979.815E-03    -24.5572E-18    -55.7490E-03     409.318E-03
             469              0.              0.              0.              0.              0.              0.              0.              0.     2.45159E-03     24.7501E-06    -123.750E-06     2.44834E-03    100.0000E-06    100.0000E-06    -49.4999E-06    -49.5001E-06    -49.5000E-06    -49.5000E-06    100.0000E-06     84.5037E-12     180.496E-12    -37.8967E-12    100.0000E-06    100.0000E-06    -49.4999E-06    -49.5001E-06    -49.5000E-06    -49.5000E-06    100.0000E-06     84.5037E-12     180.496E-12    -37.8967E-12              1.              1.              1.     693.560E-09    -610.202E-09         1.00000    -333.333E-03              1.     120.776E-09    -37.4175E-09              1.     282.621E-09     603.666E-09    -126.745E-09
             470              0.              0.              0.              0.              0.              0.              0.              0.     2.44959E-03     24.7500E-06    -74.2500E-06     2.44834E-03     100.000E-06     100.000E-06    -49.5000E-06    -49.5000E-06    -49.5000E-06    -49.5000E-06     100.000E-06     53.0407E-12    -31.5016E-12     22.0223E-12     100.000E-06     100.000E-06    -49.5000E-06    -49.5000E-06    -49.5000E-06    -49.5000E-06     100.000E-06     53.0407E-12    -31.5016E-12     22.0223E-12              1.              1.              1.     265.340E-09    -294.463E-09         1.00000    -333.333E-03         1.00000    -16.7076E-09    -12.4149E-09              1.     177.393E-09    -105.356E-09     73.6532E-09
             471              0.              0.              0.              0.              0.              0.              0.              0.     2.44859E-03     24.7500E-06    -24.7500E-06     2.44834E-03    100.0000E-06    100.0000E-06    -49.5000E-06    -49.5000E-06    -49.5000E-06    -49.5000E-06    100.0000E-06    -26.8074E-12     24.5909E-12    -24.5909E-12    100.0000E-06    100.0000E-06    -49.5000E-06    -49.5000E-06    -49.5000E-06    -49.5000E-06    100.0000E-06    -26.8074E-12     24.5909E-12    -24.5909E-12              1.              1.              1.     144.025E-09    -125.297E-09         1.00000    -333.333E-03              1.     9.36392E-09     9.36407E-09              1.    -89.6568E-09     82.2437E-09    -82.2439E-09
             472              0.              0.              0.              0.              0.              0.              0.              0.     2.44859E-03     24.7500E-06     24.7500E-06     2.44834E-03    100.0000E-06    100.0000E-06    -49.5000E-06    -49.5000E-06    -49.5000E-06    -49.5000E-06    100.0000E-06     26.8074E-12     24.5909E-12     24.5909E-12    100.0000E-06    100.0000E-06    -49.5000E-06    -49.5000E-06    -49.5000E-06    -49.5000E-06    100.0000E-06     26.8074E-12     24.5909E-12     24.5909E-12              1.              1.              1.     144.037E-09    -125.309E-09         1.00000    -333.333E-03              1.     9.36393E-09     9.36401E-09              1.     89.6570E-09     82.2437E-09     82.2437E-09
             473              0.              0.              0.              0.              0.              0.              0.              0.     2.44959E-03     24.7500E-06     74.2500E-06     2.44834E-03     100.000E-06     100.000E-06    -49.5000E-06    -49.5000E-06    -49.5000E-06    -49.5000E-06     100.000E-06    -53.0406E-12    -31.5016E-12    -22.0223E-12     100.000E-06     100.000E-06    -49.5000E-06    -49.5000E-06    -49.5000E-06    -49.5000E-06     100.000E-06    -53.0406E-12    -31.5016E-12    -22.0223E-12              1.              1.              1.     265.313E-09    -294.435E-09         1.00000    -333.333E-03         1.00000    -16.7077E-09    -12.4151E-09              1.    -177.393E-09    -105.357E-09    -73.6533E-09
             474              0.              0.              0.              0.              0.              0.              0.              0.     2.45159E-03     24.7501E-06     123.750E-06     2.44834E-03    100.0000E-06    100.0000E-06    -49.4999E-06    -49.5001E-06    -49.5000E-06    -49.5000E-06    100.0000E-06    -84.5038E-12     180.496E-12     37.8967E-12    100.0000E-06    100.0000E-06    -49.4999E-06    -49.5001E-06    -49.5000E-06    -49.5000E-06    100.0000E-06    -84.5038E-12     180.496E-12     37.8967E-12              1.              1.              1.     693.567E-09    -610.208E-09         1.00000    -333.333E-03              1.     120.777E-09    -37.4176E-09              1.    -282.621E-09     603.666E-09     126.745E-09
             475              0.              0.              0.              0.              0.              0.              0.              0.     2.35173E-03     24.7499E-06    -123.750E-06     2.34834E-03    100.0000E-06    100.0000E-06    -49.4999E-06    -49.5001E-06    -49.5000E-06    -49.5000E-06    100.0000E-06    -95.2928E-12    -4.44772E-12     22.0411E-12    100.0000E-06    100.0000E-06    -49.4999E-06    -49.5001E-06    -49.5000E-06    -49.5000E-06    100.0000E-06    -95.2928E-12    -4.44772E-12     22.0411E-12    1000.000E-03    1000.000E-03    1000.000E-03     717.273E-09    -775.720E-09         1.00000    -333.333E-03    1000.000E-03    -120.681E-09     62.2345E-09    1000.000E-03    -318.705E-09    -14.8753E-09     73.7161E-09
             476              0.              0.              0.              0.              0.              0.              0.              0.     2.34964E-03     24.7500E-06    -74.2500E-06     2.34834E-03    100.0000E-06    100.0000E-06    -49.5000E-06    -49.5000E-06    -49.5000E-06    -49.5000E-06    100.0000E-06    -60.1341E-12     278.811E-15     2.51882E-12    100.0000E-06    100.0000E-06    -49.5000E-06    -49.5000E-06    -49.5000E-06    -49.5000E-06    100.0000E-06    -60.1341E-12     278.811E-15     2.51882E-12              1.              1.              1.     327.234E-09    -300.871E-09         1.00000    -333.333E-03    1000.000E-03     14.0185E-09     12.3439E-09              1.    -201.117E-09     932.475E-12     8.42414E-09
             477              0.              0.              0.              0.              0.              0.              0.              0.     2.34860E-03     24.7500E-06    -24.7500E-06     2.34834E-03     100.000E-06     100.000E-06    -49.5000E-06    -49.5000E-06    -49.5000E-06    -49.5000E-06     100.000E-06     29.7448E-12    -1.38249E-12     1.38245E-12     100.000E-06     100.000E-06    -49.5000E-06    -49.5000E-06    -49.5000E-06    -49.5000E-06     100.000E-06     29.7448E-12    -1.38249E-12     1.38245E-12              1.              1.              1.     143.563E-09    -163.120E-09         1.00000    -333.333E-03              1.    -9.77853E-09    -9.77847E-09              1.     99.4810E-09    -4.62372E-09     4.62357E-09
             478              0.              0.              0.              0.              0.              0.              0.              0.     2.34860E-03     24.7500E-06     24.7500E-06     2.34834E-03     100.000E-06     100.000E-06    -49.5000E-06    -49.5000E-06    -49.5000E-06    -49.5000E-06     100.000E-06    -29.7448E-12    -1.38248E-12    -1.38249E-12     100.000E-06     100.000E-06    -49.5000E-06    -49.5000E-06    -49.5000E-06    -49.5000E-06     100.000E-06    -29.7448E-12    -1.38248E-12    -1.38249E-12              1.              1.              1.     143.563E-09    -163.120E-09         1.00000    -333.333E-03              1.    -9.77864E-09    -9.77856E-09              1.    -99.4810E-09    -4.62369E-09    -4.62371E-09
             479              0.              0.              0.              0.              0.              0.              0.              0.     2.34964E-03     24.7500E-06     74.2500E-06     2.34834E-03    100.0000E-06    100.0000E-06    -49.5000E-06    -49.5000E-06    -49.5000E-06    -49.5000E-06    100.0000E-06     60.1341E-12     278.761E-15    -2.51883E-12    100.0000E-06    100.0000E-06    -49.5000E-06    -49.5000E-06    -49.5000E-06    -49.5000E-06    100.0000E-06     60.1341E-12     278.761E-15    -2.51883E-12              1.              1.              1.     327.229E-09    -300.867E-09         1.00000    -333.333E-03    1000.000E-03     14.0185E-09     12.3439E-09              1.     201.117E-09     932.309E-12    -8.42418E-09
             480              0.              0.              0.              0.              0.              0.              0.              0.     2.35173E-03     24.7499E-06     123.750E-06     2.34834E-03    100.0000E-06    100.0000E-06    -49.4999E-06    -49.5001E-06    -49.5000E-06    -49.5000E-06    100.0000E-06     95.2929E-12    -4.44777E-12    -22.0411E-12    100.0000E-06    100.0000E-06    -49.4999E-06    -49.5001E-06    -49.5000E-06    -49.5000E-06    100.0000E-06     95.2929E-12    -4.44777E-12    -22.0411E-12    1000.000E-03    1000.000E-03    1000.000E-03     717.277E-09    -775.725E-09         1.00000    -333.333E-03    1000.000E-03    -120.681E-09     62.2342E-09    1000.000E-03     318.705E-09    -14.8755E-09    -73.7161E-09
             481              0.              0.              0.              0.              0.              0.              0.              0.     2.25188E-03     24.7501E-06    -123.750E-06     2.24834E-03     100.000E-06     100.000E-06    -49.4999E-06    -49.5001E-06    -49.5000E-06    -49.5000E-06     100.000E-06     122.823E-12     5.63891E-12    -48.4715E-12     100.000E-06     100.000E-06    -49.4999E-06    -49.5001E-06    -49.5000E-06    -49.5000E-06     100.000E-06     122.823E-12     5.63891E-12    -48.4715E-12              1.              1.              1.     1.03234E-06    -930.173E-09         1.00000    -333.333E-03              1.     185.105E-09    -82.9328E-09              1.     410.780E-09     18.8593E-09    -162.112E-09
             482              0.              0.              0.              0.              0.              0.              0.              0.     2.24970E-03     24.7500E-06    -74.2500E-06     2.24834E-03     100.000E-06     100.000E-06    -49.4999E-06    -49.5001E-06    -49.5000E-06    -49.5000E-06     100.000E-06     78.1729E-12    -2.29524E-12    -5.36173E-12     100.000E-06     100.000E-06    -49.4999E-06    -49.5001E-06    -49.5000E-06    -49.5000E-06     100.000E-06     78.1729E-12    -2.29524E-12    -5.36173E-12              1.              1.              1.     384.579E-09    -427.125E-09         1.00000    -333.333E-03              1.    -20.9997E-09    -21.5463E-09              1.     261.448E-09    -7.67640E-09    -17.9322E-09
             483              0.              0.              0.              0.              0.              0.              0.              0.     2.24861E-03     24.7500E-06    -24.7500E-06     2.24834E-03    100.0000E-06    100.0000E-06    -49.5000E-06    -49.5000E-06    -49.5000E-06    -49.5000E-06    100.0000E-06    -38.1095E-12     2.67665E-12    -2.67669E-12    100.0000E-06    100.0000E-06    -49.5000E-06    -49.5000E-06    -49.5000E-06    -49.5000E-06    100.0000E-06    -38.1095E-12     2.67665E-12    -2.67669E-12              1.              1.              1.     221.476E-09    -189.863E-09         1.00000    -333.333E-03              1.     15.8066E-09     15.8066E-09              1.    -127.457E-09     8.95199E-09    -8.95213E-09
             484              0.              0.              0.              0.              0.              0.              0.              0.     2.24861E-03     24.7500E-06     24.7500E-06     2.24834E-03    100.0000E-06    100.0000E-06    -49.5000E-06    -49.5000E-06    -49.5000E-06    -49.5000E-06    100.0000E-06     38.1095E-12     2.67667E-12     2.67665E-12    100.0000E-06    100.0000E-06    -49.5000E-06    -49.5000E-06    -49.5000E-06    -49.5000E-06    100.0000E-06     38.1095E-12     2.67667E-12     2.67665E-12              1.              1.              1.     221.486E-09    -189.872E-09         1.00000    -333.333E-03              1.     15.8065E-09     15.8066E-09              1.     127.457E-09     8.95206E-09     8.95202E-09
             485              0.              0.              0.              0.              0.              0.              0.              0.     2.24970E-03     24.7500E-06     74.2500E-06     2.24834E-03     100.000E-06     100.000E-06    -49.4999E-06    -49.5001E-06    -49.5000E-06    -49.5000E-06     100.000E-06    -78.1730E-12    -2.29530E-12     5.36170E-12     100.000E-06     100.000E-06    -49.4999E-06    -49.5001E-06    -49.5000E-06    -49.5000E-06     100.000E-06    -78.1730E-12    -2.29530E-12     5.36170E-12              1.              1.              1.     384.582E-09    -427.128E-09         1.00000    -333.333E-03              1.    -20.9999E-09    -21.5463E-09              1.    -261.448E-09    -7.67660E-09     17.9321E-09
             486              0.              0.              0.              0.              0.              0.              0.              0.     2.25188E-03     24.7501E-06     123.750E-06     2.24834E-03     100.000E-06     100.000E-06    -49.4999E-06    -49.5001E-06    -49.5000E-06    -49.5000E-06     100.000E-06    -122.823E-12     5.63886E-12     48.4715E-12     100.000E-06     100.000E-06    -49.4999E-06    -49.5001E-06    -49.5000E-06    -49.5000E-06     100.000E-06    -122.823E-12     5.63886E-12     48.4715E-12              1.              1.              1.     1.03234E-06    -930.172E-09         1.00000    -333.333E-03              1.     185.105E-09    -82.9328E-09              1.    -410.780E-09     18.8591E-09     162.112E-09
             487              0.              0.              0.              0.              0.              0.              0.              0.     2.15204E-03     24.7498E-06    -123.750E-06     2.14834E-03    100.0000E-06    100.0000E-06    -49.4998E-06    -49.5002E-06    -49.5000E-06    -49.5000E-06    100.0000E-06    -176.350E-12    -10.9995E-12     89.4973E-12    100.0000E-06    100.0000E-06    -49.4998E-06    -49.5002E-06    -49.5000E-06    -49.5000E-06    100.0000E-06    -176.350E-12    -10.9995E-12     89.4973E-12              1.    1000.000E-03    1000.000E-03     1.35816E-06    -1.52488E-06         1.00000    -333.333E-03              1.    -297.025E-09     130.313E-09    1000.000E-03    -589.801E-09    -36.7876E-09     299.322E-09
             488              0.              0.              0.              0.              0.              0.              0.              0.     2.14976E-03     24.7500E-06    -74.2500E-06     2.14834E-03    100.0000E-06    100.0000E-06    -49.4999E-06    -49.5001E-06    -49.5000E-06    -49.5000E-06    100.0000E-06    -113.074E-12     3.80574E-12     9.61813E-12    100.0000E-06    100.0000E-06    -49.4999E-06    -49.5001E-06    -49.5000E-06    -49.5000E-06    100.0000E-06    -113.074E-12     3.80574E-12     9.61813E-12    1000.000E-03    1000.000E-03    1000.000E-03     615.892E-09    -545.389E-09         1.00000    -333.333E-03    1000.000E-03     36.3922E-09     34.1109E-09    1000.000E-03    -378.175E-09     12.7282E-09     32.1677E-09
             489              0.              0.              0.              0.              0.              0.              0.              0.     2.14862E-03     24.7500E-06    -24.7500E-06     2.14834E-03     100.000E-06     100.000E-06    -49.5000E-06    -49.5000E-06    -49.5000E-06    -49.5000E-06     100.000E-06     53.1028E-12    -5.13564E-12     5.13565E-12     100.000E-06     100.000E-06    -49.5000E-06    -49.5000E-06    -49.5000E-06    -49.5000E-06     100.000E-06     53.1028E-12    -5.13564E-12     5.13565E-12              1.              1.              1.     281.570E-09    -333.802E-09         1.00000    -333.333E-03              1.    -26.1156E-09    -26.1156E-09              1.     177.601E-09    -17.1761E-09     17.1761E-09
             490              0.              0.              0.              0.              0.              0.              0.              0.     2.14862E-03     24.7500E-06     24.7500E-06     2.14834E-03     100.000E-06     100.000E-06    -49.5000E-06    -49.5000E-06    -49.5000E-06    -49.5000E-06     100.000E-06    -53.1029E-12    -5.13569E-12    -5.13566E-12     100.000E-06     100.000E-06    -49.5000E-06    -49.5000E-06    -49.5000E-06    -49.5000E-06     100.000E-06    -53.1029E-12    -5.13569E-12    -5.13566E-12              1.              1.              1.     281.576E-09    -333.808E-09         1.00000    -333.333E-03              1.    -26.1157E-09    -26.1156E-09              1.    -177.602E-09    -17.1762E-09    -17.1761E-09
             491              0.              0.              0.              0.              0.              0.              0.              0.     2.14976E-03     24.7500E-06     74.2500E-06     2.14834E-03    100.0000E-06    100.0000E-06    -49.4999E-06    -49.5001E-06    -49.5000E-06    -49.5000E-06    100.0000E-06     113.074E-12     3.80572E-12    -9.61817E-12    100.0000E-06    100.0000E-06    -49.4999E-06    -49.5001E-06    -49.5000E-06    -49.5000E-06    100.0000E-06     113.074E-12     3.80572E-12    -9.61817E-12    1000.000E-03    1000.000E-03    1000.000E-03     615.894E-09    -545.391E-09         1.00000    -333.333E-03    1000.000E-03     36.3922E-09     34.1111E-09    1000.000E-03     378.175E-09     12.7282E-09    -32.1678E-09
             492              0.              0.              0.              0.              0.              0.              0.              0.     2.15204E-03     24.7498E-06     123.750E-06     2.14834E-03    100.0000E-06    100.0000E-06    -49.4998E-06    -49.5002E-06    -49.5000E-06    -49.5000E-06    100.0000E-06     176.350E-12    -10.9996E-12    -89.4973E-12    100.0000E-06    100.0000E-06    -49.4998E-06    -49.5002E-06    -49.5000E-06    -49.5000E-06    100.0000E-06     176.350E-12    -10.9996E-12    -89.4973E-12              1.    1000.000E-03    1000.000E-03     1.35816E-06    -1.52488E-06         1.00000    -333.333E-03              1.    -297.025E-09     130.312E-09    1000.000E-03     589.801E-09    -36.7878E-09    -299.322E-09
             493              0.              0.              0.              0.              0.              0.              0.              0.     2.05222E-03     24.7503E-06    -123.750E-06     2.04834E-03    100.0000E-06    100.0000E-06    -49.4997E-06    -49.5003E-06    -49.4999E-06    -49.5001E-06    100.0000E-06     265.881E-12     19.4176E-12    -156.667E-12    100.0000E-06    100.0000E-06    -49.4997E-06    -49.5003E-06    -49.4999E-06    -49.5001E-06    100.0000E-06     265.881E-12     19.4176E-12    -156.667E-12              1.         1.00000         1.00000     2.37331E-06    -2.08438E-06         1.00000    -333.333E-03              1.     503.509E-09    -214.580E-09         1.00000     889.235E-09     64.9418E-09    -523.970E-09
             494              0.              0.              0.              0.              0.              0.              0.              0.     2.04983E-03     24.7500E-06    -74.2500E-06     2.04834E-03     100.000E-06     100.000E-06    -49.4999E-06    -49.5001E-06    -49.5000E-06    -49.5000E-06     100.000E-06     171.854E-12    -5.94493E-12    -16.1107E-12     100.000E-06     100.000E-06    -49.4999E-06    -49.5001E-06    -49.5000E-06    -49.5000E-06     100.000E-06     171.854E-12    -5.94493E-12    -16.1107E-12         1.00000         1.00000         1.00000     819.142E-09    -936.965E-09         1.00000    -333.333E-03         1.00000    -62.8631E-09    -54.9598E-09         1.00000     574.764E-09    -19.8827E-09    -53.8818E-09
             495              0.              0.              0.              0.              0.              0.              0.              0.     2.04864E-03     24.7501E-06    -24.7501E-06     2.04834E-03    100.0000E-06    100.0000E-06    -49.4999E-06    -49.5001E-06    -49.5000E-06    -49.5000E-06    100.0000E-06    -77.2523E-12     9.35206E-12    -9.35207E-12    100.0000E-06    100.0000E-06    -49.4999E-06    -49.5001E-06    -49.5000E-06    -49.5000E-06    100.0000E-06    -77.2523E-12     9.35206E-12    -9.35207E-12    1000.000E-03              1.              1.     534.882E-09    -437.542E-09         1.00000    -333.333E-03              1.     48.6699E-09     48.6700E-09              1.    -258.369E-09     31.2778E-09    -31.2778E-09
             496              0.              0.              0.              0.              0.              0.              0.              0.     2.04864E-03     24.7501E-06     24.7501E-06     2.04834E-03    100.0000E-06    100.0000E-06    -49.4999E-06    -49.5001E-06    -49.5000E-06    -49.5000E-06    100.0000E-06     77.2523E-12     9.35204E-12     9.35207E-12    100.0000E-06    100.0000E-06    -49.4999E-06    -49.5001E-06    -49.5000E-06    -49.5000E-06    100.0000E-06     77.2523E-12     9.35204E-12     9.35207E-12    1000.000E-03              1.              1.     534.881E-09    -437.542E-09         1.00000    -333.333E-03              1.     48.6698E-09     48.6698E-09              1.     258.369E-09     31.2777E-09     31.2778E-09
             497              0.              0.              0.              0.              0.              0.              0.              0.     2.04983E-03     24.7500E-06     74.2500E-06     2.04834E-03     100.000E-06     100.000E-06    -49.4999E-06    -49.5001E-06    -49.5000E-06    -49.5000E-06     100.000E-06    -171.854E-12    -5.94499E-12     16.1106E-12     100.000E-06     100.000E-06    -49.4999E-06    -49.5001E-06    -49.5000E-06    -49.5000E-06     100.000E-06    -171.854E-12    -5.94499E-12     16.1106E-12         1.00000         1.00000         1.00000     819.142E-09    -936.965E-09         1.00000    -333.333E-03         1.00000    -62.8633E-09    -54.9599E-09         1.00000    -574.764E-09    -19.8829E-09     53.8817E-09
             498              0.              0.              0.              0.              0.              0.              0.              0.     2.05222E-03     24.7503E-06     123.750E-06     2.04834E-03    100.0000E-06    100.0000E-06    -49.4997E-06    -49.5003E-06    -49.4999E-06    -49.5001E-06    100.0000E-06    -265.881E-12     19.4175E-12     156.667E-12    100.0000E-06    100.0000E-06    -49.4997E-06    -49.5003E-06    -49.4999E-06    -49.5001E-06    100.0000E-06    -265.881E-12     19.4175E-12     156.667E-12              1.         1.00000         1.00000     2.37331E-06    -2.08438E-06         1.00000    -333.333E-03              1.     503.509E-09    -214.580E-09         1.00000    -889.235E-09     64.9415E-09     523.970E-09
             499              0.              0.              0.              0.              0.              0.              0.              0.     1.95242E-03     24.7495E-06    -123.750E-06     1.94834E-03    100.0000E-06    100.0000E-06    -49.4995E-06    -49.5005E-06    -49.5001E-06    -49.4999E-06    100.0000E-06    -408.204E-12    -32.8401E-12     269.384E-12    100.0000E-06    100.0000E-06    -49.4995E-06    -49.5005E-06    -49.5001E-06    -49.4999E-06    100.0000E-06    -408.204E-12    -32.8401E-12     269.384E-12              1.    1000.000E-03    1000.000E-03     3.27024E-06    -3.77041E-06         1.00000    -333.333E-03              1.    -863.026E-09     362.870E-09    1000.000E-03    -1.36523E-06    -109.833E-09     900.951E-09
             500              0.              0.              0.              0.              0.              0.              0.              0.     1.94991E-03     24.7500E-06    -74.2501E-06     1.94834E-03    100.0000E-06    100.0000E-06    -49.4998E-06    -49.5002E-06    -49.5000E-06    -49.5000E-06    100.0000E-06    -266.328E-12     9.45881E-12     25.0143E-12    100.0000E-06    100.0000E-06    -49.4998E-06    -49.5002E-06    -49.5000E-06    -49.5000E-06    100.0000E-06    -266.328E-12     9.45881E-12     25.0143E-12    1000.000E-03    1000.000E-03    1000.000E-03     1.47177E-06    -1.25824E-06         1.00000    -333.333E-03    1000.000E-03     118.650E-09     94.8805E-09    1000.000E-03    -890.730E-09     31.6348E-09     83.6599E-09
             501              0.              0.              0.              0.              0.              0.              0.              0.     1.94865E-03     24.7499E-06    -24.7499E-06     1.94834E-03     100.000E-06     100.000E-06    -49.4999E-06    -49.5001E-06    -49.5000E-06    -49.5000E-06     100.000E-06     114.132E-12    -15.9993E-12     15.9992E-12     100.000E-06     100.000E-06    -49.4999E-06    -49.5001E-06    -49.5000E-06    -49.5000E-06     100.000E-06     114.132E-12    -15.9993E-12     15.9992E-12         1.00000              1.              1.     706.083E-09    -873.946E-09         1.00000    -333.333E-03         1.00000    -83.9315E-09    -83.9314E-09              1.     381.712E-09    -53.5092E-09     53.5091E-09
             502              0.              0.              0.              0.              0.              0.              0.              0.     1.94865E-03     24.7499E-06     24.7499E-06     1.94834E-03     100.000E-06     100.000E-06    -49.4999E-06    -49.5001E-06    -49.5000E-06    -49.5000E-06     100.000E-06    -114.132E-12    -15.9992E-12    -15.9992E-12     100.000E-06     100.000E-06    -49.4999E-06    -49.5001E-06    -49.5000E-06    -49.5000E-06     100.000E-06    -114.132E-12    -15.9992E-12    -15.9992E-12         1.00000              1.              1.     706.079E-09    -873.943E-09         1.00000    -333.333E-03         1.00000    -83.9316E-09    -83.9317E-09              1.    -381.712E-09    -53.5092E-09    -53.5092E-09
             503              0.              0.              0.              0.              0.              0.              0.              0.     1.94991E-03     24.7500E-06     74.2501E-06     1.94834E-03    100.0000E-06    100.0000E-06    -49.4998E-06    -49.5002E-06    -49.5000E-06    -49.5000E-06    100.0000E-06     266.328E-12     9.45875E-12    -25.0143E-12    100.0000E-06    100.0000E-06    -49.4998E-06    -49.5002E-06    -49.5000E-06    -49.5000E-06    100.0000E-06     266.328E-12     9.45875E-12    -25.0143E-12    1000.000E-03    1000.000E-03    1000.000E-03     1.47176E-06    -1.25823E-06         1.00000    -333.333E-03    1000.000E-03     118.650E-09     94.8807E-09    1000.000E-03     890.730E-09     31.6346E-09    -83.6599E-09
             504              0.              0.              0.              0.              0.              0.              0.              0.     1.95242E-03     24.7495E-06     123.750E-06     1.94834E-03    100.0000E-06    100.0000E-06    -49.4995E-06    -49.5005E-06    -49.5001E-06    -49.4999E-06    100.0000E-06     408.204E-12    -32.8402E-12    -269.384E-12    100.0000E-06    100.0000E-06    -49.4995E-06    -49.5005E-06    -49.5001E-06    -49.4999E-06    100.0000E-06     408.204E-12    -32.8402E-12    -269.384E-12              1.    1000.000E-03    1000.000E-03     3.27024E-06    -3.77041E-06         1.00000    -333.333E-03              1.    -863.025E-09     362.870E-09    1000.000E-03     1.36523E-06    -109.833E-09    -900.951E-09
             505              0.              0.              0.              0.              0.              0.              0.              0.     1.85264E-03     24.7508E-06    -123.750E-06     1.84834E-03     100.000E-06     100.000E-06    -49.4992E-06    -49.5008E-06    -49.4998E-06    -49.5002E-06     100.000E-06     629.953E-12     56.3504E-12    -464.119E-12     100.000E-06     100.000E-06    -49.4992E-06    -49.5008E-06    -49.4998E-06    -49.5002E-06     100.000E-06     629.953E-12     56.3504E-12    -464.119E-12              1.         1.00000         1.00000     6.04898E-06    -5.16301E-06         1.00001    -333.334E-03              1.     1.50727E-06    -621.273E-09         1.00000     2.10687E-06     188.463E-09    -1.55224E-06
             506              0.              0.              0.              0.              0.              0.              0.              0.     1.85000E-03     24.7500E-06    -74.2499E-06     1.84834E-03     100.000E-06     100.000E-06    -49.4997E-06    -49.5003E-06    -49.5000E-06    -49.5000E-06     100.000E-06     415.638E-12    -13.7038E-12    -40.9358E-12     100.000E-06     100.000E-06    -49.4997E-06    -49.5003E-06    -49.5000E-06    -49.5000E-06     100.000E-06     415.638E-12    -13.7038E-12    -40.9358E-12         1.00000         1.00000         1.00000     1.96779E-06    -2.34348E-06         1.00000    -333.333E-03         1.00000    -213.262E-09    -162.423E-09         1.00000     1.39009E-06    -45.8321E-09    -136.909E-09
             507              0.              0.              0.              0.              0.              0.              0.              0.     1.84867E-03     24.7502E-06    -24.7502E-06     1.84834E-03    100.0000E-06    100.0000E-06    -49.4998E-06    -49.5002E-06    -49.5000E-06    -49.5000E-06    100.0000E-06    -168.478E-12     28.8570E-12    -28.8570E-12    100.0000E-06    100.0000E-06    -49.4998E-06    -49.5002E-06    -49.5000E-06    -49.5000E-06    100.0000E-06    -168.478E-12     28.8570E-12    -28.8570E-12    1000.000E-03    1000.000E-03    1000.000E-03     1.45423E-06    -1.14753E-06         1.00000    -333.333E-03    1000.000E-03     153.351E-09     153.351E-09    1000.000E-03    -563.472E-09     96.5116E-09    -96.5118E-09
             508              0.              0.              0.              0.              0.              0.              0.              0.     1.84867E-03     24.7502E-06     24.7502E-06     1.84834E-03    100.0000E-06    100.0000E-06    -49.4998E-06    -49.5002E-06    -49.5000E-06    -49.5000E-06    100.0000E-06     168.478E-12     28.8570E-12     28.8570E-12    100.0000E-06    100.0000E-06    -49.4998E-06    -49.5002E-06    -49.5000E-06    -49.5000E-06    100.0000E-06     168.478E-12     28.8570E-12     28.8570E-12    1000.000E-03    1000.000E-03    1000.000E-03     1.45423E-06    -1.14753E-06         1.00000    -333.333E-03    1000.000E-03     153.351E-09     153.351E-09    1000.000E-03     563.472E-09     96.5116E-09     96.5117E-09
             509              0.              0.              0.              0.              0.              0.              0.              0.     1.85000E-03     24.7500E-06     74.2499E-06     1.84834E-03     100.000E-06     100.000E-06    -49.4997E-06    -49.5003E-06    -49.5000E-06    -49.5000E-06     100.000E-06    -415.638E-12    -13.7039E-12     40.9358E-12     100.000E-06     100.000E-06    -49.4997E-06    -49.5003E-06    -49.5000E-06    -49.5000E-06     100.000E-06    -415.638E-12    -13.7039E-12     40.9358E-12         1.00000         1.00000         1.00000     1.96779E-06    -2.34348E-06         1.00000    -333.333E-03         1.00000    -213.262E-09    -162.423E-09         1.00000    -1.39010E-06    -45.8323E-09     136.909E-09
             510              0.              0.              0.              0.              0.              0.              0.              0.     1.85264E-03     24.7508E-06     123.750E-06     1.84834E-03     100.000E-06     100.000E-06    -49.4992E-06    -49.5008E-06    -49.4998E-06    -49.5002E-06     100.000E-06    -629.953E-12     56.3503E-12     464.119E-12     100.000E-06     100.000E-06    -49.4992E-06    -49.5008E-06    -49.4998E-06    -49.5002E-06     100.000E-06    -629.953E-12     56.3503E-12     464.119E-12              1.         1.00000         1.00000     6.04898E-06    -5.16301E-06         1.00001    -333.334E-03              1.     1.50727E-06    -621.273E-09         1.00000    -2.10687E-06     188.463E-09     1.55224E-06
             511              0.              0.              0.              0.              0.              0.              0.              0.     1.75289E-03     24.7488E-06    -123.750E-06     1.74834E-03    100.0000E-06    100.0000E-06    -49.4987E-06    -49.5013E-06    -49.5003E-06    -49.4997E-06    100.0000E-06    -969.415E-12    -96.0787E-12     799.001E-12    100.0000E-06    100.0000E-06    -49.4987E-06    -49.5013E-06    -49.5003E-06    -49.4997E-06    100.0000E-06    -969.415E-12    -96.0787E-12     799.001E-12              1.     999.999E-03     999.999E-03     8.16303E-06    -9.74918E-06         1.00001    -333.333E-03              1.    -2.64603E-06     1.05997E-06     999.999E-03    -3.24219E-06    -321.333E-09     2.67224E-06
             512              0.              0.              0.              0.              0.              0.              0.              0.     1.75009E-03     24.7500E-06    -74.2502E-06     1.74834E-03     99.9999E-06     99.9999E-06    -49.4995E-06    -49.5005E-06    -49.5000E-06    -49.5000E-06     99.9999E-06    -647.451E-12     19.1596E-12     63.4265E-12     99.9999E-06     99.9999E-06    -49.4995E-06    -49.5005E-06    -49.5000E-06    -49.5000E-06     99.9999E-06    -647.451E-12     19.1596E-12     63.4265E-12     999.999E-03    1000.000E-03    1000.000E-03     3.75798E-06    -3.10876E-06         1.00000    -333.333E-03     999.999E-03     378.007E-09     271.222E-09    1000.000E-03    -2.16539E-06     64.0790E-09     212.129E-09
             513              0.              0.              0.              0.              0.              0.              0.              0.     1.74869E-03     24.7497E-06    -24.7497E-06     1.74834E-03     100.000E-06     100.000E-06    -49.4997E-06    -49.5003E-06    -49.5000E-06    -49.5000E-06     100.000E-06     247.536E-12    -50.4279E-12     50.4279E-12     100.000E-06     100.000E-06    -49.4997E-06    -49.5003E-06    -49.5000E-06    -49.5000E-06     100.000E-06     247.536E-12    -50.4279E-12     50.4279E-12         1.00000         1.00000         1.00000     1.86515E-06    -2.46918E-06         1.00000    -333.333E-03         1.00000    -302.011E-09    -302.011E-09         1.00000     827.878E-09    -168.655E-09     168.655E-09
             514              0.              0.              0.              0.              0.              0.              0.              0.     1.74869E-03     24.7497E-06     24.7497E-06     1.74834E-03     100.000E-06     100.000E-06    -49.4997E-06    -49.5003E-06    -49.5000E-06    -49.5000E-06     100.000E-06    -247.536E-12    -50.4279E-12    -50.4279E-12     100.000E-06     100.000E-06    -49.4997E-06    -49.5003E-06    -49.5000E-06    -49.5000E-06     100.000E-06    -247.536E-12    -50.4279E-12    -50.4279E-12         1.00000         1.00000         1.00000     1.86516E-06    -2.46918E-06         1.00000    -333.333E-03         1.00000    -302.011E-09    -302.011E-09         1.00000    -827.878E-09    -168.655E-09    -168.655E-09
             515              0.              0.              0.              0.              0.              0.              0.              0.     1.75009E-03     24.7500E-06     74.2502E-06     1.74834E-03     99.9999E-06     99.9999E-06    -49.4995E-06    -49.5005E-06    -49.5000E-06    -49.5000E-06     99.9999E-06     647.451E-12     19.1596E-12    -63.4265E-12     99.9999E-06     99.9999E-06    -49.4995E-06    -49.5005E-06    -49.5000E-06    -49.5000E-06     99.9999E-06     647.451E-12     19.1596E-12    -63.4265E-12     999.999E-03    1000.000E-03    1000.000E-03     3.75798E-06    -3.10876E-06         1.00000    -333.333E-03     999.999E-03     378.007E-09     271.222E-09    1000.000E-03     2.16539E-06     64.0789E-09    -212.129E-09
             516              0.              0.              0.              0.              0.              0.              0.              0.     1.75289E-03     24.7488E-06     123.750E-06     1.74834E-03    100.0000E-06    100.0000E-06    -49.4987E-06    -49.5013E-06    -49.5003E-06    -49.4997E-06    100.0000E-06     969.415E-12    -96.0788E-12    -799.001E-12    100.0000E-06    100.0000E-06    -49.4987E-06    -49.5013E-06    -49.5003E-06    -49.4997E-06    100.0000E-06     969.415E-12    -96.0788E-12    -799.001E-12              1.     999.999E-03     999.999E-03     8.16303E-06    -9.74918E-06         1.00001    -333.333E-03              1.    -2.64603E-06     1.05997E-06     999.999E-03     3.24219E-06    -321.334E-09    -2.67224E-06
             517              0.              0.              0.              0.              0.              0.              0.              0.     1.65316E-03     24.7520E-06    -123.751E-06     1.64834E-03     100.000E-06     100.000E-06    -49.4979E-06    -49.5021E-06    -49.4995E-06    -49.5005E-06     100.000E-06     1.48707E-09     155.507E-12    -1.38063E-09     100.000E-06     100.000E-06    -49.4979E-06    -49.5021E-06    -49.4995E-06    -49.5005E-06     100.000E-06     1.48707E-09     155.507E-12    -1.38063E-09         1.00000         1.00000         1.00000     15.6899E-06    -12.9706E-06         1.00001    -333.335E-03              1.     4.58934E-06    -1.86976E-06         1.00000     4.97347E-06     520.091E-09    -4.61749E-06
             518              0.              0.              0.              0.              0.              0.              0.              0.     1.65020E-03     24.7501E-06    -74.2496E-06     1.64834E-03     100.000E-06     100.000E-06    -49.4992E-06    -49.5009E-06    -49.5001E-06    -49.5000E-06     100.000E-06     1.00918E-09    -32.4329E-12    -91.2675E-12     100.000E-06     100.000E-06    -49.4992E-06    -49.5009E-06    -49.5001E-06    -49.5000E-06     100.000E-06     1.00918E-09    -32.4329E-12    -91.2675E-12         1.00000         1.00000         1.00000     4.87234E-06    -6.17074E-06         1.00001    -333.333E-03         1.00000    -770.576E-09    -527.806E-09         1.00000     3.37518E-06    -108.471E-09    -305.243E-09
             519              0.              0.              0.              0.              0.              0.              0.              0.     1.64871E-03     24.7505E-06    -24.7505E-06     1.64834E-03     99.9999E-06     99.9999E-06    -49.4994E-06    -49.5005E-06    -49.5000E-06    -49.5000E-06     99.9999E-06    -357.208E-12     83.5125E-12    -83.5125E-12     99.9999E-06     99.9999E-06    -49.4994E-06    -49.5005E-06    -49.5000E-06    -49.5000E-06     99.9999E-06    -357.208E-12     83.5125E-12    -83.5125E-12     999.999E-03    1000.000E-03    1000.000E-03     4.08502E-06    -3.19945E-06         1.00000    -333.334E-03     999.999E-03     442.797E-09     442.797E-09    1000.000E-03    -1.19468E-06     279.306E-09    -279.306E-09
             520              0.              0.              0.              0.              0.              0.              0.              0.     1.64871E-03     24.7505E-06     24.7505E-06     1.64834E-03     99.9999E-06     99.9999E-06    -49.4994E-06    -49.5005E-06    -49.5000E-06    -49.5000E-06     99.9999E-06     357.208E-12     83.5125E-12     83.5125E-12     99.9999E-06     99.9999E-06    -49.4994E-06    -49.5005E-06    -49.5000E-06    -49.5000E-06     99.9999E-06     357.208E-12     83.5125E-12     83.5125E-12     999.999E-03    1000.000E-03    1000.000E-03     4.08502E-06    -3.19945E-06         1.00000    -333.334E-03     999.999E-03     442.797E-09     442.797E-09    1000.000E-03     1.19468E-06     279.306E-09     279.306E-09
             521              0.              0.              0.              0.              0.              0.              0.              0.     1.65020E-03     24.7501E-06     74.2496E-06     1.64834E-03     100.000E-06     100.000E-06    -49.4992E-06    -49.5009E-06    -49.5001E-06    -49.5000E-06     100.000E-06    -1.00918E-09    -32.4330E-12     91.2675E-12     100.000E-06     100.000E-06    -49.4992E-06    -49.5009E-06    -49.5001E-06    -49.5000E-06     100.000E-06    -1.00918E-09    -32.4330E-12     91.2675E-12         1.00000         1.00000         1.00000     4.87234E-06    -6.17074E-06         1.00001    -333.333E-03         1.00000    -770.577E-09    -527.806E-09         1.00000    -3.37518E-06    -108.471E-09     305.243E-09
             522              0.              0.              0.              0.              0.              0.              0.              0.     1.65316E-03     24.7520E-06     123.751E-06     1.64834E-03     100.000E-06     100.000E-06    -49.4979E-06    -49.5021E-06    -49.4995E-06    -49.5005E-06     100.000E-06    -1.48707E-09     155.507E-12     1.38063E-09     100.000E-06     100.000E-06    -49.4979E-06    -49.5021E-06    -49.4995E-06    -49.5005E-06     100.000E-06    -1.48707E-09     155.507E-12     1.38063E-09         1.00000         1.00000         1.00000     15.6899E-06    -12.9706E-06         1.00001    -333.335E-03              1.     4.58934E-06    -1.86976E-06         1.00000    -4.97347E-06     520.091E-09     4.61749E-06
             523              0.              0.              0.              0.              0.              0.              0.              0.     1.55348E-03     24.7468E-06    -123.749E-06     1.54834E-03     100.000E-06     100.000E-06    -49.4966E-06    -49.5034E-06    -49.5009E-06    -49.4991E-06     100.000E-06    -2.26035E-09    -289.303E-12     2.42187E-09     100.000E-06     100.000E-06    -49.4966E-06    -49.5034E-06    -49.5009E-06    -49.4991E-06     100.000E-06    -2.26035E-09    -289.303E-12     2.42187E-09              1.     999.997E-03     999.997E-03     20.3258E-06    -25.5059E-06         1.00002    -333.331E-03         1.00000    -8.35027E-06     3.17084E-06     999.997E-03    -7.55970E-06    -967.570E-09     8.09990E-06
             524              0.              0.              0.              0.              0.              0.              0.              0.     1.55032E-03     24.7497E-06    -74.2507E-06     1.54834E-03     99.9998E-06     99.9998E-06    -49.4986E-06    -49.5012E-06    -49.4999E-06    -49.4999E-06     99.9998E-06    -1.56112E-09     20.3413E-12     178.580E-12     99.9998E-06     99.9998E-06    -49.4986E-06    -49.5012E-06    -49.4999E-06    -49.4999E-06     99.9998E-06    -1.56112E-09     20.3413E-12     178.580E-12     999.998E-03     999.999E-03     999.999E-03     9.90010E-06    -7.98491E-06         1.00001    -333.334E-03     999.998E-03     1.14192E-06     773.319E-09     999.999E-03    -5.22112E-06     68.0312E-09     597.259E-09
             525              0.              0.              0.              0.              0.              0.              0.              0.     1.54874E-03     24.7492E-06    -24.7492E-06     1.54834E-03     100.000E-06     100.000E-06    -49.4992E-06    -49.5010E-06    -49.5001E-06    -49.5001E-06     100.000E-06     508.155E-12    -171.106E-12     171.106E-12     100.000E-06     100.000E-06    -49.4992E-06    -49.5010E-06    -49.5001E-06    -49.5001E-06     100.000E-06     508.155E-12    -171.106E-12     171.106E-12         1.00000         1.00000         1.00000     5.01674E-06    -7.28205E-06         1.00001    -333.333E-03         1.00000    -1.13262E-06    -1.13262E-06         1.00000     1.69951E-06    -572.262E-09     572.262E-09
             526              0.              0.              0.              0.              0.              0.              0.              0.     1.54874E-03     24.7492E-06     24.7492E-06     1.54834E-03     100.000E-06     100.000E-06    -49.4992E-06    -49.5010E-06    -49.5001E-06    -49.5001E-06     100.000E-06    -508.155E-12    -171.106E-12    -171.106E-12     100.000E-06     100.000E-06    -49.4992E-06    -49.5010E-06    -49.5001E-06    -49.5001E-06     100.000E-06    -508.155E-12    -171.106E-12    -171.106E-12         1.00000         1.00000         1.00000     5.01674E-06    -7.28205E-06         1.00001    -333.333E-03         1.00000    -1.13262E-06    -1.13262E-06         1.00000    -1.69951E-06    -572.262E-09    -572.262E-09
             527              0.              0.              0.              0.              0.              0.              0.              0.     1.55032E-03     24.7497E-06     74.2507E-06     1.54834E-03     99.9998E-06     99.9998E-06    -49.4986E-06    -49.5012E-06    -49.4999E-06    -49.4999E-06     99.9998E-06     1.56112E-09     20.3413E-12    -178.580E-12     99.9998E-06     99.9998E-06    -49.4986E-06    -49.5012E-06    -49.4999E-06    -49.4999E-06     99.9998E-06     1.56112E-09     20.3413E-12    -178.580E-12     999.998E-03     999.999E-03     999.999E-03     9.90010E-06    -7.98491E-06         1.00001    -333.334E-03     999.998E-03     1.14192E-06     773.319E-09     999.999E-03     5.22112E-06     68.0311E-09    -597.259E-09
             528              0.              0.              0.              0.              0.              0.              0.              0.     1.55348E-03     24.7468E-06     123.749E-06     1.54834E-03     100.000E-06     100.000E-06    -49.4966E-06    -49.5034E-06    -49.5009E-06    -49.4991E-06     100.000E-06     2.26035E-09    -289.304E-12    -2.42187E-09     100.000E-06     100.000E-06    -49.4966E-06    -49.5034E-06    -49.5009E-06    -49.4991E-06     100.000E-06     2.26035E-09    -289.304E-12    -2.42187E-09              1.     999.997E-03     999.997E-03     20.3258E-06    -25.5059E-06         1.00002    -333.331E-03         1.00000    -8.35027E-06     3.17084E-06     999.997E-03     7.55970E-06    -967.570E-09    -8.09990E-06
             529              0.              0.              0.              0.              0.              0.              0.              0.     1.45382E-03     24.7552E-06    -123.752E-06     1.44834E-03     100.000E-06     100.000E-06    -49.4945E-06    -49.5055E-06    -49.4985E-06    -49.5015E-06     100.000E-06     3.40163E-09     415.946E-12    -4.16403E-09     100.000E-06     100.000E-06    -49.4945E-06    -49.5055E-06    -49.4985E-06    -49.5015E-06     100.000E-06     3.40163E-09     415.946E-12    -4.16403E-09         1.00000         1.00000         1.00000     40.9480E-06    -32.4951E-06         1.00004    -333.338E-03         1.00000     14.1418E-06    -5.68720E-06         1.00000     11.3767E-06     1.39112E-06    -13.9265E-06
             530              0.              0.              0.              0.              0.              0.              0.              0.     1.45045E-03     24.7508E-06    -74.2488E-06     1.44834E-03     100.000E-06     100.000E-06    -49.4980E-06    -49.5024E-06    -49.5003E-06    -49.5001E-06     100.000E-06     2.40146E-09    -76.0594E-12    -154.813E-12     100.000E-06     100.000E-06    -49.4980E-06    -49.5024E-06    -49.5003E-06    -49.5001E-06     100.000E-06     2.40146E-09    -76.0594E-12    -154.813E-12         1.00000         1.00000         1.00000     12.3570E-06    -16.8212E-06         1.00002    -333.333E-03         1.00000    -2.74152E-06    -1.72245E-06         1.00000     8.03163E-06    -254.379E-09    -517.768E-09
             531              0.              0.              0.              0.              0.              0.              0.              0.     1.44876E-03     24.7515E-06    -24.7515E-06     1.44834E-03     99.9999E-06     99.9999E-06    -49.4984E-06    -49.5015E-06    -49.4999E-06    -49.4999E-06     99.9999E-06    -705.647E-12     228.587E-12    -228.587E-12     99.9999E-06     99.9999E-06    -49.4984E-06    -49.5015E-06    -49.4999E-06    -49.4999E-06     99.9999E-06    -705.647E-12     228.587E-12    -228.587E-12     999.999E-03         1.00000         1.00000     11.9429E-06    -9.19086E-06         1.00001    -333.334E-03     999.999E-03     1.37613E-06     1.37613E-06         1.00000    -2.36002E-06     764.506E-09    -764.506E-09
             532              0.              0.              0.              0.              0.              0.              0.              0.     1.44876E-03     24.7515E-06     24.7515E-06     1.44834E-03     99.9999E-06     99.9999E-06    -49.4984E-06    -49.5015E-06    -49.4999E-06    -49.4999E-06     99.9999E-06     705.647E-12     228.587E-12     228.587E-12     99.9999E-06     99.9999E-06    -49.4984E-06    -49.5015E-06    -49.4999E-06    -49.4999E-06     99.9999E-06     705.647E-12     228.587E-12     228.587E-12     999.999E-03         1.00000         1.00000     11.9429E-06    -9.19086E-06         1.00001    -333.334E-03     999.999E-03     1.37613E-06     1.37613E-06         1.00000     2.36002E-06     764.506E-09     764.506E-09
             533              0.              0.              0.              0.              0.              0.              0.              0.     1.45045E-03     24.7508E-06     74.2488E-06     1.44834E-03     100.000E-06     100.000E-06    -49.4980E-06    -49.5024E-06    -49.5003E-06    -49.5001E-06     100.000E-06    -2.40146E-09    -76.0594E-12     154.813E-12     100.000E-06     100.000E-06    -49.4980E-06    -49.5024E-06    -49.5003E-06    -49.5001E-06     100.000E-06    -2.40146E-09    -76.0594E-12     154.813E-12         1.00000         1.00000         1.00000     12.3570E-06    -16.8212E-06         1.00002    -333.333E-03         1.00000    -2.74152E-06    -1.72245E-06         1.00000    -8.03163E-06    -254.379E-09     517.768E-09
             534              0.              0.              0.              0.              0.              0.              0.              0.     1.45382E-03     24.7552E-06     123.752E-06     1.44834E-03     100.000E-06     100.000E-06    -49.4945E-06    -49.5055E-06    -49.4985E-06    -49.5015E-06     100.000E-06    -3.40163E-09     415.946E-12     4.16403E-09     100.000E-06     100.000E-06    -49.4945E-06    -49.5055E-06    -49.4985E-06    -49.5015E-06     100.000E-06    -3.40163E-09     415.946E-12     4.16403E-09         1.00000         1.00000         1.00000     40.9480E-06    -32.4951E-06         1.00004    -333.338E-03         1.00000     14.1418E-06    -5.68720E-06         1.00000    -11.3767E-06     1.39112E-06     13.9265E-06
             535              0.              0.              0.              0.              0.              0.              0.              0.     1.35424E-03     24.7418E-06    -123.747E-06     1.34834E-03    100.0000E-06    100.0000E-06    -49.4912E-06    -49.5088E-06    -49.5027E-06    -49.4973E-06    100.0000E-06    -5.08868E-09    -830.044E-12     7.49071E-09    100.0000E-06    100.0000E-06    -49.4912E-06    -49.5088E-06    -49.5027E-06    -49.4973E-06    100.0000E-06    -5.08868E-09    -830.044E-12     7.49071E-09    1000.000E-03     999.992E-03     999.992E-03     50.5239E-06    -66.8576E-06         1.00006    -333.325E-03    1000.000E-03    -26.3047E-06     9.97559E-06     999.992E-03    -17.0190E-06    -2.77607E-06     25.0525E-06
             536              0.              0.              0.              0.              0.              0.              0.              0.     1.35061E-03     24.7484E-06    -74.2523E-06     1.34834E-03     99.9994E-06     99.9994E-06    -49.4961E-06    -49.5033E-06    -49.4996E-06    -49.4998E-06     99.9994E-06    -3.70416E-09    -18.5221E-12     495.329E-12     99.9994E-06     99.9994E-06    -49.4961E-06    -49.5033E-06    -49.4996E-06    -49.4998E-06     99.9994E-06    -3.70416E-09    -18.5221E-12     495.329E-12     999.994E-03     999.997E-03     999.997E-03     27.5769E-06    -20.8994E-06         1.00002    -333.335E-03     999.994E-03     4.00674E-06     2.67135E-06     999.997E-03    -12.3885E-06    -61.9466E-09     1.65662E-06
             537              0.              0.              0.              0.              0.              0.              0.              0.     1.34879E-03     24.7475E-06    -24.7475E-06     1.34834E-03     100.001E-06     100.001E-06    -49.4976E-06    -49.5030E-06    -49.5003E-06    -49.5003E-06     100.001E-06     922.297E-12    -560.645E-12     560.645E-12     100.001E-06     100.001E-06    -49.4976E-06    -49.5030E-06    -49.5003E-06    -49.5003E-06     100.001E-06     922.297E-12    -560.645E-12     560.645E-12         1.00001         1.00000         1.00000     14.6871E-06    -21.3377E-06         1.00002    -333.332E-03         1.00001    -3.32493E-06    -3.32493E-06         1.00000     3.08461E-06    -1.87507E-06     1.87507E-06
             538              0.              0.              0.              0.              0.              0.              0.              0.     1.34879E-03     24.7475E-06     24.7475E-06     1.34834E-03     100.001E-06     100.001E-06    -49.4976E-06    -49.5030E-06    -49.5003E-06    -49.5003E-06     100.001E-06    -922.297E-12    -560.645E-12    -560.645E-12     100.001E-06     100.001E-06    -49.4976E-06    -49.5030E-06    -49.5003E-06    -49.5003E-06     100.001E-06    -922.297E-12    -560.645E-12    -560.645E-12         1.00001         1.00000         1.00000     14.6871E-06    -21.3377E-06         1.00002    -333.332E-03         1.00001    -3.32493E-06    -3.32493E-06         1.00000    -3.08461E-06    -1.87507E-06    -1.87507E-06
             539              0.              0.              0.              0.              0.              0.              0.              0.     1.35061E-03     24.7484E-06     74.2523E-06     1.34834E-03     99.9994E-06     99.9994E-06    -49.4961E-06    -49.5033E-06    -49.4996E-06    -49.4998E-06     99.9994E-06     3.70416E-09    -18.5221E-12    -495.329E-12     99.9994E-06     99.9994E-06    -49.4961E-06    -49.5033E-06    -49.4996E-06    -49.4998E-06     99.9994E-06     3.70416E-09    -18.5221E-12    -495.329E-12     999.994E-03     999.997E-03     999.997E-03     27.5769E-06    -20.8994E-06         1.00002    -333.335E-03     999.994E-03     4.00674E-06     2.67135E-06     999.997E-03     12.3885E-06    -61.9466E-09    -1.65662E-06
             540              0.              0.              0.              0.              0.              0.              0.              0.     1.35424E-03     24.7418E-06     123.747E-06     1.34834E-03    100.0000E-06    100.0000E-06    -49.4912E-06    -49.5088E-06    -49.5027E-06    -49.4973E-06    100.0000E-06     5.08868E-09    -830.044E-12    -7.49071E-09    100.0000E-06    100.0000E-06    -49.4912E-06    -49.5088E-06    -49.5027E-06    -49.4973E-06    100.0000E-06     5.08868E-09    -830.044E-12    -7.49071E-09    1000.000E-03     999.992E-03     999.992E-03     50.5239E-06    -66.8576E-06         1.00006    -333.325E-03    1000.000E-03    -26.3047E-06     9.97559E-06     999.992E-03     17.0190E-06    -2.77607E-06    -25.0525E-06
             541              0.              0.              0.              0.              0.              0.              0.              0.     1.25470E-03     24.7633E-06    -123.756E-06     1.24833E-03     99.9999E-06     99.9999E-06    -49.4858E-06    -49.5140E-06    -49.4952E-06    -49.5046E-06     99.9999E-06     7.34848E-09     1.31089E-09    -12.9283E-09     99.9999E-06     99.9999E-06    -49.4858E-06    -49.5140E-06    -49.4952E-06    -49.5046E-06     99.9999E-06     7.34848E-09     1.31089E-09    -12.9283E-09     999.998E-03         1.00001         1.00001     108.785E-06    -79.2792E-06         1.00009    -333.348E-03     999.998E-03     46.2338E-06    -16.7156E-06         1.00001     24.5769E-06     4.38426E-06    -43.2386E-06
             542              0.              0.              0.              0.              0.              0.              0.              0.     1.25079E-03     24.7534E-06    -74.2463E-06     1.24834E-03     100.001E-06     100.001E-06    -49.4946E-06    -49.5066E-06    -49.5008E-06    -49.5004E-06     100.001E-06     5.49866E-09     37.1934E-12    -397.287E-12     100.001E-06     100.001E-06    -49.4946E-06    -49.5066E-06    -49.5008E-06    -49.5004E-06     100.001E-06     5.49866E-09     37.1934E-12    -397.287E-12         1.00001         1.00001         1.00001     34.2839E-06    -45.7958E-06         1.00005    -333.332E-03         1.00001    -7.27655E-06    -4.23323E-06         1.00001     18.3902E-06     124.393E-09    -1.32872E-06
             543              0.              0.              0.              0.              0.              0.              0.              0.     1.24883E-03     24.7546E-06    -24.7546E-06     1.24834E-03     99.9994E-06     99.9994E-06    -49.4950E-06    -49.5044E-06    -49.4997E-06    -49.4997E-06     99.9994E-06    -1.22575E-09     805.181E-12    -805.181E-12     99.9994E-06     99.9994E-06    -49.4950E-06    -49.5044E-06    -49.4997E-06    -49.4997E-06     99.9994E-06    -1.22575E-09     805.181E-12    -805.181E-12     999.994E-03         1.00000         1.00000     38.9152E-06    -24.1417E-06         1.00003    -333.339E-03     999.994E-03     7.38791E-06     7.38791E-06         1.00000    -4.09949E-06     2.69291E-06    -2.69291E-06
             544              0.              0.              0.              0.              0.              0.              0.              0.     1.24883E-03     24.7546E-06     24.7546E-06     1.24834E-03     99.9994E-06     99.9994E-06    -49.4950E-06    -49.5044E-06    -49.4997E-06    -49.4997E-06     99.9994E-06     1.22575E-09     805.181E-12     805.181E-12     99.9994E-06     99.9994E-06    -49.4950E-06    -49.5044E-06    -49.4997E-06    -49.4997E-06     99.9994E-06     1.22575E-09     805.181E-12     805.181E-12     999.994E-03         1.00000         1.00000     38.9152E-06    -24.1417E-06         1.00003    -333.339E-03     999.994E-03     7.38791E-06     7.38791E-06         1.00000     4.09949E-06     2.69291E-06     2.69291E-06
             545              0.              0.              0.              0.              0.              0.              0.              0.     1.25079E-03     24.7534E-06     74.2463E-06     1.24834E-03     100.001E-06     100.001E-06    -49.4946E-06    -49.5066E-06    -49.5008E-06    -49.5004E-06     100.001E-06    -5.49866E-09     37.1934E-12     397.287E-12     100.001E-06     100.001E-06    -49.4946E-06    -49.5066E-06    -49.5008E-06    -49.5004E-06     100.001E-06    -5.49866E-09     37.1934E-12     397.287E-12         1.00001         1.00001         1.00001     34.2839E-06    -45.7958E-06         1.00005    -333.332E-03         1.00001    -7.27654E-06    -4.23323E-06         1.00001    -18.3902E-06     124.392E-09     1.32872E-06
             546              0.              0.              0.              0.              0.              0.              0.              0.     1.25470E-03     24.7633E-06     123.756E-06     1.24833E-03     99.9999E-06     99.9999E-06    -49.4858E-06    -49.5140E-06    -49.4952E-06    -49.5046E-06     99.9999E-06    -7.34848E-09     1.31089E-09     12.9283E-09     99.9999E-06     99.9999E-06    -49.4858E-06    -49.5140E-06    -49.4952E-06    -49.5046E-06     99.9999E-06    -7.34848E-09     1.31089E-09     12.9283E-09     999.998E-03         1.00001         1.00001     108.785E-06    -79.2792E-06         1.00009    -333.348E-03     999.998E-03     46.2338E-06    -16.7156E-06         1.00001    -24.5769E-06     4.38426E-06     43.2386E-06
             547              0.              0.              0.              0.              0.              0.              0.              0.     1.15527E-03     24.7284E-06    -123.740E-06     1.14835E-03     99.9993E-06     99.9993E-06    -49.4771E-06    -49.5222E-06    -49.5080E-06    -49.4914E-06     99.9993E-06    -10.7729E-09    -1.61540E-09     22.9643E-09     99.9993E-06     99.9993E-06    -49.4771E-06    -49.5222E-06    -49.5080E-06    -49.4914E-06     99.9993E-06    -10.7729E-09    -1.61540E-09     22.9643E-09     999.993E-03     999.972E-03     999.972E-03     129.186E-06    -172.426E-06         1.00014    -333.309E-03     999.993E-03    -77.0705E-06     33.8648E-06     999.972E-03    -36.0298E-06    -5.40268E-06     76.8036E-06
             548              0.              0.              0.              0.              0.              0.              0.              0.     1.15100E-03     24.7430E-06    -74.2568E-06     1.14834E-03     99.9973E-06     99.9973E-06    -49.4884E-06    -49.5089E-06    -49.4981E-06    -49.4992E-06     99.9973E-06    -8.53973E-09     339.948E-12     239.846E-12     99.9973E-06     99.9973E-06    -49.4884E-06    -49.5089E-06    -49.4981E-06    -49.4992E-06     99.9973E-06    -8.53973E-09     339.948E-12     239.846E-12     999.973E-03     999.990E-03     999.990E-03     85.7993E-06    -51.5170E-06         1.00004    -333.342E-03     999.973E-03     20.9188E-06     13.3706E-06     999.990E-03    -28.5610E-06     1.13695E-06     802.160E-09
             549              0.              0.              0.              0.              0.              0.              0.              0.     1.14888E-03     24.7417E-06    -24.7417E-06     1.14834E-03     100.000E-06     100.000E-06    -49.4920E-06    -49.5085E-06    -49.5002E-06    -49.5002E-06     100.000E-06     1.25619E-09    -1.14540E-09     1.14540E-09     100.000E-06     100.000E-06    -49.4920E-06    -49.5085E-06    -49.5002E-06    -49.5002E-06     100.000E-06     1.25619E-09    -1.14540E-09     1.14540E-09         1.00000         1.00000         1.00000     53.1951E-06    -56.8990E-06         1.00006    -333.333E-03         1.00000    -1.84838E-06    -1.84838E-06         1.00000     4.20131E-06    -3.83077E-06     3.83077E-06
             550              0.              0.              0.              0.              0.              0.              0.              0.     1.14888E-03     24.7417E-06     24.7417E-06     1.14834E-03     100.000E-06     100.000E-06    -49.4920E-06    -49.5085E-06    -49.5002E-06    -49.5002E-06     100.000E-06    -1.25619E-09    -1.14540E-09    -1.14540E-09     100.000E-06     100.000E-06    -49.4920E-06    -49.5085E-06    -49.5002E-06    -49.5002E-06     100.000E-06    -1.25619E-09    -1.14540E-09    -1.14540E-09         1.00000         1.00000         1.00000     53.1951E-06    -56.8990E-06         1.00006    -333.333E-03         1.00000    -1.84838E-06    -1.84838E-06         1.00000    -4.20131E-06    -3.83077E-06    -3.83077E-06
             551              0.              0.              0.              0.              0.              0.              0.              0.     1.15100E-03     24.7430E-06     74.2568E-06     1.14834E-03     99.9973E-06     99.9973E-06    -49.4884E-06    -49.5089E-06    -49.4981E-06    -49.4992E-06     99.9973E-06     8.53973E-09     339.948E-12    -239.846E-12     99.9973E-06     99.9973E-06    -49.4884E-06    -49.5089E-06    -49.4981E-06    -49.4992E-06     99.9973E-06     8.53973E-09     339.948E-12    -239.846E-12     999.973E-03     999.990E-03     999.990E-03     85.7993E-06    -51.5170E-06         1.00004    -333.342E-03     999.973E-03     20.9188E-06     13.3706E-06     999.990E-03     28.5610E-06     1.13695E-06    -802.160E-09
             552              0.              0.              0.              0.              0.              0.              0.              0.     1.15527E-03     24.7284E-06     123.740E-06     1.14835E-03     99.9993E-06     99.9993E-06    -49.4771E-06    -49.5222E-06    -49.5080E-06    -49.4914E-06     99.9993E-06     10.7729E-09    -1.61540E-09    -22.9643E-09     99.9993E-06     99.9993E-06    -49.4771E-06    -49.5222E-06    -49.5080E-06    -49.4914E-06     99.9993E-06     10.7729E-09    -1.61540E-09    -22.9643E-09     999.993E-03     999.972E-03     999.972E-03     129.186E-06    -172.426E-06         1.00014    -333.309E-03     999.993E-03    -77.0705E-06     33.8648E-06     999.972E-03     36.0298E-06    -5.40268E-06    -76.8036E-06
             553              0.              0.              0.              0.              0.              0.              0.              0.     1.05589E-03     24.7834E-06    -123.766E-06     1.04832E-03     99.9984E-06     99.9984E-06    -49.4633E-06    -49.5349E-06    -49.4830E-06    -49.5152E-06     99.9984E-06     14.5490E-09     5.82974E-09    -42.6971E-09     99.9984E-06     99.9984E-06    -49.4633E-06    -49.5349E-06    -49.4830E-06    -49.5152E-06     99.9984E-06     14.5490E-09     5.82974E-09    -42.6971E-09     999.984E-03         1.00004         1.00004     299.559E-06    -179.758E-06         1.00022    -333.388E-03     999.983E-03     167.522E-06    -47.6201E-06         1.00004     48.6590E-06     19.4975E-06    -142.800E-06
             554              0.              0.              0.              0.              0.              0.              0.              0.     1.05126E-03     24.7624E-06    -74.2360E-06     1.04835E-03     100.002E-06     100.002E-06    -49.4835E-06    -49.5183E-06    -49.5010E-06    -49.5007E-06     100.002E-06     12.0718E-09     2.43228E-09    -4.21312E-09     100.002E-06     100.002E-06    -49.4835E-06    -49.5183E-06    -49.5010E-06    -49.5007E-06     100.002E-06     12.0718E-09     2.43228E-09    -4.21312E-09         1.00002         1.00001         1.00001     112.492E-06    -120.201E-06         1.00013    -333.335E-03         1.00002    -4.71475E-06    -2.97075E-06         1.00001     40.3739E-06     8.13470E-06    -14.0907E-06
             555              0.              0.              0.              0.              0.              0.              0.              0.     1.04892E-03     24.7638E-06    -24.7638E-06     1.04833E-03     99.9934E-06     99.9934E-06    -49.4824E-06    -49.5109E-06    -49.4967E-06    -49.4967E-06     99.9934E-06    -1.40297E-09     4.64154E-09    -4.64154E-09     99.9934E-06     99.9934E-06    -49.4824E-06    -49.5109E-06    -49.4967E-06    -49.4967E-06     99.9934E-06    -1.40297E-09     4.64154E-09    -4.64154E-09     999.933E-03     999.980E-03     999.980E-03     141.963E-06    -48.2694E-06         1.00003    -333.358E-03     999.933E-03     46.8598E-06     46.8598E-06     999.980E-03    -4.69221E-06     15.5235E-06    -15.5235E-06
             556              0.              0.              0.              0.              0.              0.              0.              0.     1.04892E-03     24.7638E-06     24.7638E-06     1.04833E-03     99.9934E-06     99.9934E-06    -49.4824E-06    -49.5109E-06    -49.4967E-06    -49.4967E-06     99.9934E-06     1.40297E-09     4.64154E-09     4.64154E-09     99.9934E-06     99.9934E-06    -49.4824E-06    -49.5109E-06    -49.4967E-06    -49.4967E-06     99.9934E-06     1.40297E-09     4.64154E-09     4.64154E-09     999.933E-03     999.980E-03     999.980E-03     141.963E-06    -48.2694E-06         1.00003    -333.358E-03     999.933E-03     46.8598E-06     46.8598E-06     999.980E-03     4.69221E-06     15.5235E-06     15.5235E-06
             557              0.              0.              0.              0.              0.              0.              0.              0.     1.05126E-03     24.7624E-06     74.2360E-06     1.04835E-03     100.002E-06     100.002E-06    -49.4835E-06    -49.5183E-06    -49.5010E-06    -49.5007E-06     100.002E-06    -12.0718E-09     2.43228E-09     4.21312E-09     100.002E-06     100.002E-06    -49.4835E-06    -49.5183E-06    -49.5010E-06    -49.5007E-06     100.002E-06    -12.0718E-09     2.43228E-09     4.21312E-09         1.00002         1.00001         1.00001     112.492E-06    -120.201E-06         1.00013    -333.335E-03         1.00002    -4.71475E-06    -2.97075E-06         1.00001    -40.3739E-06     8.13470E-06     14.0907E-06
             558              0.              0.              0.              0.              0.              0.              0.              0.     1.05589E-03     24.7834E-06     123.766E-06     1.04832E-03     99.9984E-06     99.9984E-06    -49.4633E-06    -49.5349E-06    -49.4830E-06    -49.5152E-06     99.9984E-06    -14.5490E-09     5.82974E-09     42.6971E-09     99.9984E-06     99.9984E-06    -49.4633E-06    -49.5349E-06    -49.4830E-06    -49.5152E-06     99.9984E-06    -14.5490E-09     5.82974E-09     42.6971E-09     999.984E-03         1.00004         1.00004     299.559E-06    -179.758E-06         1.00022    -333.388E-03     999.983E-03     167.522E-06    -47.6201E-06         1.00004    -48.6590E-06     19.4975E-06     142.800E-06
             559              0.              0.              0.              0.              0.              0.              0.              0.     956.741E-06     24.6911E-06    -123.714E-06     948.387E-06     99.9969E-06     99.9969E-06    -49.4401E-06    -49.5569E-06    -49.5223E-06    -49.4747E-06     99.9968E-06    -19.4018E-09     500.032E-12     67.4941E-09     99.9969E-06     99.9969E-06    -49.4401E-06    -49.5569E-06    -49.5223E-06    -49.4747E-06     99.9968E-06    -19.4018E-09     500.032E-12     67.4941E-09     999.969E-03     999.922E-03     999.922E-03     343.207E-06    -437.848E-06         1.00036    -333.276E-03     999.969E-03    -206.480E-06     112.098E-06     999.921E-03    -64.8890E-06     1.67235E-06     225.733E-06
             560              0.              0.              0.              0.              0.              0.              0.              0.     951.558E-06     24.7209E-06    -74.2656E-06     948.333E-06     99.9863E-06     99.9863E-06    -49.4630E-06    -49.5231E-06    -49.4897E-06    -49.4964E-06     99.9863E-06    -17.6542E-09     4.33615E-09    -9.25320E-09     99.9863E-06     99.9863E-06    -49.4630E-06    -49.5231E-06    -49.4897E-06    -49.4964E-06     99.9863E-06    -17.6542E-09     4.33615E-09    -9.25320E-09     999.862E-03     999.946E-03     999.946E-03     285.419E-06    -116.602E-06         1.00006    -333.372E-03     999.862E-03     106.918E-06     61.9895E-06     999.946E-03    -59.0441E-06     14.5022E-06    -30.9472E-06
             561              0.              0.              0.              0.              0.              0.              0.              0.     949.007E-06     24.7201E-06    -24.7201E-06     948.363E-06     99.9906E-06     99.9906E-06    -49.4688E-06    -49.5218E-06    -49.4953E-06    -49.4953E-06     99.9906E-06     759.295E-12     1.52871E-09    -1.52871E-09     99.9906E-06     99.9906E-06    -49.4688E-06    -49.5218E-06    -49.4953E-06    -49.4953E-06     99.9906E-06     759.295E-12     1.52871E-09    -1.52871E-09     999.906E-03     999.932E-03     999.932E-03     203.962E-06    -150.626E-06         1.00008    -333.329E-03     999.906E-03     26.7064E-06     26.7064E-06     999.932E-03     2.53945E-06     5.11276E-06    -5.11276E-06
             562              0.              0.              0.              0.              0.              0.              0.              0.     949.007E-06     24.7201E-06     24.7201E-06     948.363E-06     99.9906E-06     99.9906E-06    -49.4688E-06    -49.5218E-06    -49.4953E-06    -49.4953E-06     99.9906E-06    -759.295E-12     1.52871E-09     1.52871E-09     99.9906E-06     99.9906E-06    -49.4688E-06    -49.5218E-06    -49.4953E-06    -49.4953E-06     99.9906E-06    -759.295E-12     1.52871E-09     1.52871E-09     999.906E-03     999.932E-03     999.932E-03     203.962E-06    -150.626E-06         1.00008    -333.329E-03     999.906E-03     26.7064E-06     26.7064E-06     999.932E-03    -2.53945E-06     5.11276E-06     5.11276E-06
             563              0.              0.              0.              0.              0.              0.              0.              0.     951.558E-06     24.7209E-06     74.2656E-06     948.333E-06     99.9863E-06     99.9863E-06    -49.4630E-06    -49.5231E-06    -49.4897E-06    -49.4964E-06     99.9863E-06     17.6542E-09     4.33615E-09     9.25320E-09     99.9863E-06     99.9863E-06    -49.4630E-06    -49.5231E-06    -49.4897E-06    -49.4964E-06     99.9863E-06     17.6542E-09     4.33615E-09     9.25320E-09     999.862E-03     999.946E-03     999.946E-03     285.419E-06    -116.602E-06         1.00006    -333.372E-03     999.862E-03     106.918E-06     61.9895E-06     999.946E-03     59.0441E-06     14.5022E-06     30.9472E-06
             564              0.              0.              0.              0.              0.              0.              0.              0.     956.741E-06     24.6911E-06     123.714E-06     948.387E-06     99.9969E-06     99.9969E-06    -49.4401E-06    -49.5569E-06    -49.5223E-06    -49.4747E-06     99.9968E-06     19.4018E-09     500.032E-12    -67.4941E-09     99.9969E-06     99.9969E-06    -49.4401E-06    -49.5569E-06    -49.5223E-06    -49.4747E-06     99.9968E-06     19.4018E-09     500.032E-12    -67.4941E-09     999.969E-03     999.922E-03     999.922E-03     343.207E-06    -437.848E-06         1.00036    -333.276E-03     999.969E-03    -206.480E-06     112.098E-06     999.921E-03     64.8890E-06     1.67235E-06    -225.733E-06
             565              0.              0.              0.              0.              0.              0.              0.              0.     857.615E-06     24.8321E-06    -123.794E-06     848.269E-06     99.9992E-06     99.9992E-06    -49.4084E-06    -49.5902E-06    -49.4429E-06    -49.5556E-06     99.9991E-06     26.4554E-09     22.1180E-09    -147.097E-09     99.9992E-06     99.9992E-06    -49.4084E-06    -49.5902E-06    -49.4429E-06    -49.5556E-06     99.9991E-06     26.4554E-09     22.1180E-09    -147.097E-09     999.991E-03         1.00020         1.00020     814.695E-06    -401.544E-06         1.00060    -333.537E-03     999.988E-03     583.851E-06    -169.881E-06         1.00020     88.4794E-06     73.9732E-06    -491.962E-06
             566              0.              0.              0.              0.              0.              0.              0.              0.     851.973E-06     24.7928E-06    -74.1931E-06     848.374E-06     99.9993E-06     99.9993E-06    -49.4449E-06    -49.5544E-06    -49.4983E-06    -49.5010E-06     99.9993E-06     27.3826E-09     13.4372E-09    -27.0689E-09     99.9993E-06     99.9993E-06    -49.4449E-06    -49.5544E-06    -49.4983E-06    -49.5010E-06     99.9993E-06     27.3826E-09     13.4372E-09    -27.0689E-09     999.994E-03     999.989E-03     999.989E-03     361.847E-06    -370.609E-06         1.00036    -333.327E-03     999.993E-03     4.90109E-06    -13.3893E-06     999.989E-03     91.5804E-06     44.9403E-06    -90.5315E-06
             567              0.              0.              0.              0.              0.              0.              0.              0.     849.072E-06     24.7900E-06    -24.7900E-06     848.347E-06     99.9609E-06     99.9609E-06    -49.4355E-06    -49.5254E-06    -49.4804E-06    -49.4804E-06     99.9609E-06     2.81501E-09     22.8093E-09    -22.8093E-09     99.9609E-06     99.9609E-06    -49.4355E-06    -49.5254E-06    -49.4804E-06    -49.4804E-06     99.9609E-06     2.81501E-09     22.8093E-09    -22.8093E-09     999.608E-03     999.757E-03     999.757E-03     449.955E-06    -151.245E-06     999.908E-03    -333.352E-03     999.607E-03     149.488E-06     149.488E-06     999.757E-03     9.41476E-06     76.2853E-06    -76.2853E-06
             568              0.              0.              0.              0.              0.              0.              0.              0.     849.072E-06     24.7900E-06     24.7900E-06     848.347E-06     99.9609E-06     99.9609E-06    -49.4355E-06    -49.5254E-06    -49.4804E-06    -49.4804E-06     99.9609E-06    -2.81501E-09     22.8093E-09     22.8093E-09     99.9609E-06     99.9609E-06    -49.4355E-06    -49.5254E-06    -49.4804E-06    -49.4804E-06     99.9609E-06    -2.81501E-09     22.8093E-09     22.8093E-09     999.608E-03     999.757E-03     999.757E-03     449.955E-06    -151.245E-06     999.908E-03    -333.352E-03     999.607E-03     149.488E-06     149.488E-06     999.757E-03    -9.41476E-06     76.2853E-06     76.2853E-06
             569              0.              0.              0.              0.              0.              0.              0.              0.     851.973E-06     24.7928E-06     74.1931E-06     848.374E-06     99.9993E-06     99.9993E-06    -49.4449E-06    -49.5544E-06    -49.4983E-06    -49.5010E-06     99.9993E-06    -27.3826E-09     13.4372E-09     27.0689E-09     99.9993E-06     99.9993E-06    -49.4449E-06    -49.5544E-06    -49.4983E-06    -49.5010E-06     99.9993E-06    -27.3826E-09     13.4372E-09     27.0689E-09     999.994E-03     999.989E-03     999.989E-03     361.847E-06    -370.609E-06         1.00036    -333.327E-03     999.993E-03     4.90109E-06    -13.3893E-06     999.989E-03    -91.5804E-06     44.9403E-06     90.5315E-06
             570              0.              0.              0.              0.              0.              0.              0.              0.     857.615E-06     24.8321E-06     123.794E-06     848.269E-06     99.9992E-06     99.9992E-06    -49.4084E-06    -49.5902E-06    -49.4429E-06    -49.5556E-06     99.9991E-06    -26.4554E-09     22.1180E-09     147.097E-09     99.9992E-06     99.9992E-06    -49.4084E-06    -49.5902E-06    -49.4429E-06    -49.5556E-06     99.9991E-06    -26.4554E-09     22.1180E-09     147.097E-09     999.991E-03         1.00020         1.00020     814.695E-06    -401.544E-06         1.00060    -333.537E-03     999.988E-03     583.851E-06    -169.881E-06         1.00020    -88.4794E-06     73.9732E-06     491.962E-06
             571              0.              0.              0.              0.              0.              0.              0.              0.     759.020E-06     24.5972E-06    -123.629E-06     748.480E-06     100.015E-06     100.015E-06    -49.3575E-06    -49.6583E-06    -49.5834E-06    -49.4320E-06     100.015E-06    -17.1844E-09    -3.75640E-09     207.959E-09     100.015E-06     100.015E-06    -49.3575E-06    -49.6583E-06    -49.5834E-06    -49.4320E-06     100.015E-06    -17.1844E-09    -3.75640E-09     207.959E-09         1.00016     999.899E-03     999.899E-03     751.752E-06    -1.26033E-03         1.00116    -333.130E-03         1.00015    -759.690E-06     253.360E-06     999.897E-03    -57.4728E-06    -12.5632E-06     695.516E-06
             572              0.              0.              0.              0.              0.              0.              0.              0.     752.419E-06     24.6487E-06    -74.2894E-06     748.337E-06     99.9603E-06     99.9603E-06    -49.3891E-06    -49.5712E-06    -49.4708E-06    -49.4894E-06     99.9602E-06    -22.6900E-09     3.09375E-09    -37.2875E-09     99.9603E-06     99.9603E-06    -49.3891E-06    -49.5712E-06    -49.4708E-06    -49.4894E-06     99.9602E-06    -22.6900E-09     3.09375E-09    -37.2875E-09     999.603E-03     999.743E-03     999.743E-03     749.888E-06    -468.323E-06         1.00021    -333.341E-03     999.600E-03     203.388E-06     79.1995E-06     999.741E-03    -75.8864E-06     10.3470E-06    -124.707E-06
             573              0.              0.              0.              0.              0.              0.              0.              0.     749.274E-06     24.6479E-06    -24.6479E-06     748.463E-06     99.9717E-06     99.9717E-06    -49.3996E-06    -49.5729E-06    -49.4862E-06    -49.4862E-06     99.9715E-06     788.454E-12     4.62407E-09    -4.62407E-09     99.9717E-06     99.9717E-06    -49.3996E-06    -49.5729E-06    -49.4862E-06    -49.4862E-06     99.9715E-06     788.454E-12     4.62407E-09    -4.62407E-09     999.719E-03     999.531E-03     999.531E-03     391.775E-06    -767.383E-06         1.00030    -333.052E-03     999.716E-03    -187.309E-06    -187.309E-06     999.530E-03     2.63697E-06     15.4651E-06    -15.4651E-06
             574              0.              0.              0.              0.              0.              0.              0.              0.     749.274E-06     24.6479E-06     24.6479E-06     748.463E-06     99.9717E-06     99.9717E-06    -49.3996E-06    -49.5729E-06    -49.4862E-06    -49.4862E-06     99.9715E-06    -788.454E-12     4.62407E-09     4.62407E-09     99.9717E-06     99.9717E-06    -49.3996E-06    -49.5729E-06    -49.4862E-06    -49.4862E-06     99.9715E-06    -788.454E-12     4.62407E-09     4.62407E-09     999.719E-03     999.531E-03     999.531E-03     391.775E-06    -767.383E-06         1.00030    -333.052E-03     999.716E-03    -187.309E-06    -187.309E-06     999.530E-03    -2.63697E-06     15.4651E-06     15.4651E-06
             575              0.              0.              0.              0.              0.              0.              0.              0.     752.419E-06     24.6487E-06     74.2894E-06     748.337E-06     99.9603E-06     99.9603E-06    -49.3891E-06    -49.5712E-06    -49.4708E-06    -49.4894E-06     99.9602E-06     22.6900E-09     3.09375E-09     37.2875E-09     99.9603E-06     99.9603E-06    -49.3891E-06    -49.5712E-06    -49.4708E-06    -49.4894E-06     99.9602E-06     22.6900E-09     3.09375E-09     37.2875E-09     999.603E-03     999.743E-03     999.743E-03     749.888E-06    -468.323E-06         1.00021    -333.341E-03     999.600E-03     203.388E-06     79.1995E-06     999.741E-03     75.8864E-06     10.3470E-06     124.707E-06
             576              0.              0.              0.              0.              0.              0.              0.              0.     759.020E-06     24.5972E-06     123.629E-06     748.480E-06     100.015E-06     100.015E-06    -49.3575E-06    -49.6583E-06    -49.5834E-06    -49.4320E-06     100.015E-06     17.1844E-09    -3.75640E-09    -207.959E-09     100.015E-06     100.015E-06    -49.3575E-06    -49.6583E-06    -49.5834E-06    -49.4320E-06     100.015E-06     17.1844E-09    -3.75640E-09    -207.959E-09         1.00016     999.899E-03     999.899E-03     751.752E-06    -1.26033E-03         1.00116    -333.130E-03         1.00015    -759.690E-06     253.360E-06     999.897E-03     57.4728E-06    -12.5632E-06    -695.516E-06
             577              0.              0.              0.              0.              0.              0.              0.              0.     660.270E-06     24.9909E-06    -123.924E-06     648.054E-06     100.081E-06     100.081E-06    -49.3028E-06    -49.7771E-06    -49.3847E-06    -49.6943E-06     100.080E-06     43.9733E-09    -15.8383E-09    -438.814E-09     100.081E-06     100.081E-06    -49.3028E-06    -49.7771E-06    -49.3847E-06    -49.6943E-06     100.080E-06     43.9733E-09    -15.8383E-09    -438.814E-09         1.00081         1.00092         1.00092     1.69940E-03    -1.47366E-03         1.00240    -333.716E-03         1.00080     1.15112E-03    -919.737E-06         1.00092     147.068E-06    -52.9708E-06    -1.46760E-03
             578              0.              0.              0.              0.              0.              0.              0.              0.     653.152E-06     24.9346E-06    -74.1022E-06     648.456E-06     100.073E-06     100.073E-06    -49.3571E-06    -49.7177E-06    -49.5548E-06    -49.5194E-06     100.073E-06     67.5525E-09    -22.9844E-09     8.31331E-09     100.073E-06     100.073E-06    -49.3571E-06    -49.7177E-06    -49.5548E-06    -49.5194E-06     100.073E-06     67.5525E-09    -22.9844E-09     8.31331E-09         1.00074     999.981E-03     999.981E-03     447.044E-06    -1.96473E-03         1.00195    -332.821E-03         1.00073    -875.450E-06    -638.827E-06     999.977E-03     225.928E-06    -76.8708E-06     27.8038E-06
             579              0.              0.              0.              0.              0.              0.              0.              0.     649.326E-06     24.9071E-06    -24.9071E-06     648.369E-06     100.003E-06     100.003E-06    -49.3406E-06    -49.6644E-06    -49.5023E-06    -49.5023E-06     100.003E-06     27.4178E-09     13.1030E-09    -13.1030E-09     100.003E-06     100.003E-06    -49.3406E-06    -49.6644E-06    -49.5023E-06    -49.5023E-06     100.003E-06     27.4178E-09     13.1030E-09    -13.1030E-09         1.00004     999.359E-03     999.359E-03     405.416E-06    -1.76051E-03         1.00112    -332.668E-03         1.00003    -676.410E-06    -676.410E-06     999.357E-03     91.6984E-06     43.8229E-06    -43.8229E-06
             580              0.              0.              0.              0.              0.              0.              0.              0.     649.326E-06     24.9071E-06     24.9071E-06     648.369E-06     100.003E-06     100.003E-06    -49.3406E-06    -49.6644E-06    -49.5023E-06    -49.5023E-06     100.003E-06    -27.4178E-09     13.1030E-09     13.1030E-09     100.003E-06     100.003E-06    -49.3406E-06    -49.6644E-06    -49.5023E-06    -49.5023E-06     100.003E-06    -27.4178E-09     13.1030E-09     13.1030E-09         1.00004     999.359E-03     999.359E-03     405.416E-06    -1.76051E-03         1.00112    -332.668E-03         1.00003    -676.410E-06    -676.410E-06     999.357E-03    -91.6984E-06     43.8229E-06     43.8229E-06
             581              0.              0.              0.              0.              0.              0.              0.              0.     653.152E-06     24.9346E-06     74.1022E-06     648.456E-06     100.073E-06     100.073E-06    -49.3571E-06    -49.7177E-06    -49.5548E-06    -49.5194E-06     100.073E-06    -67.5525E-09    -22.9844E-09    -8.31331E-09     100.073E-06     100.073E-06    -49.3571E-06    -49.7177E-06    -49.5548E-06    -49.5194E-06     100.073E-06    -67.5525E-09    -22.9844E-09    -8.31331E-09         1.00074     999.981E-03     999.981E-03     447.044E-06    -1.96473E-03         1.00195    -332.821E-03         1.00073    -875.450E-06    -638.827E-06     999.977E-03    -225.928E-06    -76.8708E-06    -27.8038E-06
             582              0.              0.              0.              0.              0.              0.              0.              0.     660.270E-06     24.9909E-06     123.924E-06     648.054E-06     100.081E-06     100.081E-06    -49.3028E-06    -49.7771E-06    -49.3847E-06    -49.6943E-06     100.080E-06    -43.9733E-09    -15.8383E-09     438.814E-09     100.081E-06     100.081E-06    -49.3028E-06    -49.7771E-06    -49.3847E-06    -49.6943E-06     100.080E-06    -43.9733E-09    -15.8383E-09     438.814E-09         1.00081         1.00092         1.00092     1.69940E-03    -1.47366E-03         1.00240    -333.716E-03         1.00080     1.15112E-03    -919.737E-06         1.00092    -147.068E-06    -52.9708E-06     1.46760E-03
             583              0.              0.              0.              0.              0.              0.              0.              0.     562.850E-06     24.4981E-06    -123.554E-06     548.575E-06     100.245E-06     100.245E-06    -49.2422E-06    -50.0076E-06    -50.0014E-06    -49.2445E-06     100.241E-06     47.5316E-09    -285.045E-09     900.727E-09     100.245E-06     100.245E-06    -49.2422E-06    -50.0076E-06    -50.0014E-06    -49.2445E-06     100.241E-06     47.5316E-09    -285.045E-09     900.727E-09         1.00249     999.889E-03     999.889E-03    -22.4145E-06    -5.14226E-03         1.00503    -331.575E-03         1.00244    -5.10034E-03    -37.5116E-06     999.862E-03     158.968E-06    -953.327E-06     3.01247E-03
             584              0.              0.              0.              0.              0.              0.              0.              0.     553.770E-06     24.5429E-06    -74.6213E-06     548.170E-06     100.156E-06     100.156E-06    -49.2705E-06    -49.8891E-06    -49.6329E-06    -49.5250E-06     100.154E-06     16.1963E-09    -250.169E-09     308.602E-09     100.156E-06     100.156E-06    -49.2705E-06    -49.8891E-06    -49.6329E-06    -49.5250E-06     100.154E-06     16.1963E-09    -250.169E-09     308.602E-09         1.00159     999.825E-03     999.825E-03     316.859E-06    -3.82092E-03         1.00365    -332.107E-03         1.00156    -2.10736E-03    -1.38557E-03     999.814E-03     54.1683E-06    -836.686E-06     1.03211E-03
             585              0.              0.              0.              0.              0.              0.              0.              0.     549.559E-06     24.5355E-06    -24.5355E-06     548.463E-06     100.496E-06     100.496E-06    -49.4956E-06    -50.0077E-06    -49.7505E-06    -49.7505E-06     100.494E-06     7.40043E-09    -252.503E-09     252.503E-09     100.496E-06     100.496E-06    -49.4956E-06    -50.0077E-06    -49.7505E-06    -49.7505E-06     100.494E-06     7.40043E-09    -252.503E-09     252.503E-09         1.00501         1.00097         1.00097    -2.31871E-03    -5.74384E-03         1.00672    -330.970E-03         1.00499    -4.02374E-03    -4.02374E-03         1.00096     24.7506E-06    -844.491E-06     844.491E-06
             586              0.              0.              0.              0.              0.              0.              0.              0.     549.559E-06     24.5355E-06     24.5355E-06     548.463E-06     100.496E-06     100.496E-06    -49.4956E-06    -50.0077E-06    -49.7505E-06    -49.7505E-06     100.494E-06    -7.40043E-09    -252.503E-09    -252.503E-09     100.496E-06     100.496E-06    -49.4956E-06    -50.0077E-06    -49.7505E-06    -49.7505E-06     100.494E-06    -7.40043E-09    -252.503E-09    -252.503E-09         1.00501         1.00097         1.00097    -2.31871E-03    -5.74384E-03         1.00672    -330.970E-03         1.00499    -4.02374E-03    -4.02374E-03         1.00096    -24.7506E-06    -844.491E-06    -844.491E-06
             587              0.              0.              0.              0.              0.              0.              0.              0.     553.770E-06     24.5429E-06     74.6213E-06     548.170E-06     100.156E-06     100.156E-06    -49.2705E-06    -49.8891E-06    -49.6329E-06    -49.5250E-06     100.154E-06    -16.1963E-09    -250.169E-09    -308.602E-09     100.156E-06     100.156E-06    -49.2705E-06    -49.8891E-06    -49.6329E-06    -49.5250E-06     100.154E-06    -16.1963E-09    -250.169E-09    -308.602E-09         1.00159     999.825E-03     999.825E-03     316.859E-06    -3.82092E-03         1.00365    -332.107E-03         1.00156    -2.10736E-03    -1.38557E-03     999.814E-03    -54.1683E-06    -836.686E-06    -1.03211E-03
             588              0.              0.              0.              0.              0.              0.              0.              0.     562.850E-06     24.4981E-06     123.554E-06     548.575E-06     100.245E-06     100.245E-06    -49.2422E-06    -50.0076E-06    -50.0014E-06    -49.2445E-06     100.241E-06    -47.5316E-09    -285.045E-09    -900.727E-09     100.245E-06     100.245E-06    -49.2422E-06    -50.0076E-06    -50.0014E-06    -49.2445E-06     100.241E-06    -47.5316E-09    -285.045E-09    -900.727E-09         1.00249     999.889E-03     999.889E-03    -22.4145E-06    -5.14226E-03         1.00503    -331.575E-03         1.00244    -5.10034E-03    -37.5116E-06     999.862E-03    -158.968E-06    -953.327E-06    -3.01247E-03
             589              0.              0.              0.              0.              0.              0.              0.              0.     464.791E-06     25.7535E-06    -124.915E-06     446.949E-06     100.529E-06     100.529E-06    -49.0648E-06    -50.4694E-06    -49.6615E-06    -49.8675E-06     100.523E-06    -39.5885E-09    -824.613E-09    -656.268E-09     100.529E-06     100.529E-06    -49.0648E-06    -50.4694E-06    -49.6615E-06    -49.8675E-06     100.523E-06    -39.5885E-09    -824.613E-09    -656.268E-09         1.00536         1.00167         1.00167     1.04058E-03    -8.35453E-03         1.01002    -331.450E-03         1.00525    -2.95063E-03    -4.32822E-03         1.00163    -132.403E-06    -2.75790E-03    -2.19488E-03
             590              0.              0.              0.              0.              0.              0.              0.              0.     455.012E-06     25.7297E-06    -74.6069E-06     448.115E-06     101.041E-06     101.041E-06    -49.3815E-06    -50.6719E-06    -50.3063E-06    -49.7351E-06     101.029E-06     32.6045E-09    -710.070E-09     1.40289E-06     101.041E-06     101.041E-06    -49.3815E-06    -50.6719E-06    -50.3063E-06    -49.7351E-06     101.029E-06     32.6045E-09    -710.070E-09     1.40289E-06         1.01053         1.00288         1.00288    -3.29314E-03    -11.9246E-03         1.01480    -329.220E-03         1.01041    -9.47924E-03    -5.65799E-03         1.00280     109.045E-06    -2.37481E-03     4.69195E-03
             591              0.              0.              0.              0.              0.              0.              0.              0.     448.513E-06     25.7049E-06    -25.7049E-06     447.037E-06     101.718E-06     101.718E-06    -49.7302E-06    -50.9981E-06    -50.3612E-06    -50.3612E-06     101.712E-06     24.8153E-09    -753.882E-09     753.882E-09     101.718E-06     101.718E-06    -49.7302E-06    -50.9981E-06    -50.3612E-06    -50.3612E-06     101.712E-06     24.8153E-09    -753.882E-09     753.882E-09         1.01733         1.00818         1.00818    -4.85322E-03    -13.3342E-03         1.02151    -329.998E-03         1.01717    -9.07414E-03    -9.07414E-03         1.00814     82.9944E-06    -2.52134E-03     2.52134E-03
             592              0.              0.              0.              0.              0.              0.              0.              0.     448.513E-06     25.7049E-06     25.7049E-06     447.037E-06     101.718E-06     101.718E-06    -49.7302E-06    -50.9981E-06    -50.3612E-06    -50.3612E-06     101.712E-06    -24.8153E-09    -753.882E-09    -753.882E-09     101.718E-06     101.718E-06    -49.7302E-06    -50.9981E-06    -50.3612E-06    -50.3612E-06     101.712E-06    -24.8153E-09    -753.882E-09    -753.882E-09         1.01733         1.00818         1.00818    -4.85322E-03    -13.3342E-03         1.02151    -329.998E-03         1.01717    -9.07414E-03    -9.07414E-03         1.00814    -82.9944E-06    -2.52134E-03    -2.52134E-03
             593              0.              0.              0.              0.              0.              0.              0.              0.     455.012E-06     25.7297E-06     74.6069E-06     448.115E-06     101.041E-06     101.041E-06    -49.3815E-06    -50.6719E-06    -50.3063E-06    -49.7351E-06     101.029E-06    -32.6045E-09    -710.070E-09    -1.40289E-06     101.041E-06     101.041E-06    -49.3815E-06    -50.6719E-06    -50.3063E-06    -49.7351E-06     101.029E-06    -32.6045E-09    -710.070E-09    -1.40289E-06         1.01053         1.00288         1.00288    -3.29314E-03    -11.9246E-03         1.01480    -329.220E-03         1.01041    -9.47924E-03    -5.65799E-03         1.00280    -109.045E-06    -2.37481E-03    -4.69195E-03
             594              0.              0.              0.              0.              0.              0.              0.              0.     464.791E-06     25.7535E-06     124.915E-06     446.949E-06     100.529E-06     100.529E-06    -49.0648E-06    -50.4694E-06    -49.6615E-06    -49.8675E-06     100.523E-06     39.5885E-09    -824.613E-09     656.268E-09     100.529E-06     100.529E-06    -49.0648E-06    -50.4694E-06    -49.6615E-06    -49.8675E-06     100.523E-06     39.5885E-09    -824.613E-09     656.268E-09         1.00536         1.00167         1.00167     1.04058E-03    -8.35453E-03         1.01002    -331.450E-03         1.00525    -2.95063E-03    -4.32822E-03         1.00163     132.403E-06    -2.75790E-03     2.19488E-03
             595              0.              0.              0.              0.              0.              0.              0.              0.     370.856E-06     25.0149E-06    -124.573E-06     348.411E-06     100.625E-06     100.625E-06    -47.7448E-06    -51.9150E-06    -51.8978E-06    -47.6996E-06     100.562E-06    -55.1309E-09    -2.07147E-06     4.75960E-06     100.625E-06     100.625E-06    -47.7448E-06    -51.9150E-06    -51.8978E-06    -47.6996E-06     100.562E-06    -55.1309E-09    -2.07147E-06     4.75960E-06         1.00670     992.514E-03     992.514E-03     76.7274E-06    -27.8174E-03         1.02033    -321.591E-03         1.00575    -27.7026E-03     378.874E-06     992.097E-03    -184.384E-06    -6.92800E-03     15.9184E-03
             596              0.              0.              0.              0.              0.              0.              0.              0.     355.302E-06     24.8379E-06    -77.5150E-06     345.852E-06     102.012E-06     102.012E-06    -49.1095E-06    -51.9190E-06    -51.0982E-06    -49.8895E-06     101.972E-06    -138.906E-09    -1.90095E-06     3.84566E-06     102.012E-06     102.012E-06    -49.1095E-06    -51.9190E-06    -51.0982E-06    -49.8895E-06     101.972E-06    -138.906E-09    -1.90095E-06     3.84566E-06         1.02042         1.00812         1.00812    -2.72737E-03    -21.5198E-03         1.02964    -327.958E-03         1.01989    -16.0293E-03    -7.94458E-03         1.00785    -464.570E-06    -6.35769E-03     12.8617E-03
             597              0.              0.              0.              0.              0.              0.              0.              0.     346.431E-06     24.9652E-06    -24.9652E-06     344.627E-06     105.084E-06     105.084E-06    -51.3588E-06    -52.7331E-06    -52.0269E-06    -52.0269E-06     105.046E-06    -127.339E-09    -2.37333E-06     2.37333E-06     105.084E-06     105.084E-06    -51.3588E-06    -52.7331E-06    -52.0269E-06    -52.0269E-06     105.046E-06    -127.339E-09    -2.37333E-06     2.37333E-06         1.05109         1.03136         1.03136    -15.0766E-03    -24.2690E-03         1.05563    -330.673E-03         1.05093    -19.5452E-03    -19.5452E-03         1.03111    -425.883E-06    -7.93755E-03     7.93755E-03
             598              0.              0.              0.              0.              0.              0.              0.              0.     346.431E-06     24.9652E-06     24.9652E-06     344.627E-06     105.084E-06     105.084E-06    -51.3588E-06    -52.7331E-06    -52.0269E-06    -52.0269E-06     105.046E-06     127.339E-09    -2.37333E-06    -2.37333E-06     105.084E-06     105.084E-06    -51.3588E-06    -52.7331E-06    -52.0269E-06    -52.0269E-06     105.046E-06     127.339E-09    -2.37333E-06    -2.37333E-06         1.05109         1.03136         1.03136    -15.0766E-03    -24.2690E-03         1.05563    -330.673E-03         1.05093    -19.5452E-03    -19.5452E-03         1.03111     425.883E-06    -7.93755E-03    -7.93755E-03
             599              0.              0.              0.              0.              0.              0.              0.              0.     355.302E-06     24.8379E-06     77.5150E-06     345.852E-06     102.012E-06     102.012E-06    -49.1095E-06    -51.9190E-06    -51.0982E-06    -49.8895E-06     101.972E-06     138.906E-09    -1.90095E-06    -3.84566E-06     102.012E-06     102.012E-06    -49.1095E-06    -51.9190E-06    -51.0982E-06    -49.8895E-06     101.972E-06     138.906E-09    -1.90095E-06    -3.84566E-06         1.02042         1.00812         1.00812    -2.72737E-03    -21.5198E-03         1.02964    -327.958E-03         1.01989    -16.0293E-03    -7.94458E-03         1.00785     464.570E-06    -6.35769E-03    -12.8617E-03
             600              0.              0.              0.              0.              0.              0.              0.              0.     370.856E-06     25.0149E-06     124.573E-06     348.411E-06     100.625E-06     100.625E-06    -47.7448E-06    -51.9150E-06    -51.8978E-06    -47.6996E-06     100.562E-06     55.1309E-09    -2.07147E-06    -4.75960E-06     100.625E-06     100.625E-06    -47.7448E-06    -51.9150E-06    -51.8978E-06    -47.6996E-06     100.562E-06     55.1309E-09    -2.07147E-06    -4.75960E-06         1.00670     992.514E-03     992.514E-03     76.7274E-06    -27.8174E-03         1.02033    -321.591E-03         1.00575    -27.7026E-03     378.874E-06     992.097E-03     184.384E-06    -6.92800E-03    -15.9184E-03
             601              0.              0.              0.              0.              0.              0.              0.              0.     278.046E-06     28.0306E-06    -129.318E-06     244.542E-06     99.3212E-06     99.3212E-06    -46.9995E-06    -51.3525E-06    -49.7686E-06    -48.4841E-06     99.2220E-06    -1.27174E-06    -3.36594E-06     315.418E-09     99.3212E-06     99.3212E-06    -46.9995E-06    -51.3525E-06    -49.7686E-06    -48.4841E-06     99.2220E-06    -1.27174E-06    -3.36594E-06     315.418E-09     993.625E-03     985.282E-03     985.282E-03     6.54857E-03    -22.5687E-03         1.00785    -323.087E-03     992.626E-03    -11.9738E-03    -3.38235E-03     984.618E-03    -4.25331E-03    -11.2573E-03     1.05491E-03
             602              0.              0.              0.              0.              0.              0.              0.              0.     257.875E-06     28.2578E-06    -78.5145E-06     244.001E-06     104.434E-06     104.434E-06    -49.3299E-06    -54.1134E-06    -52.7874E-06    -50.4556E-06     104.234E-06    -1.60627E-06    -2.90619E-06     8.11394E-06     104.434E-06     104.434E-06    -49.3299E-06    -54.1134E-06    -52.7874E-06    -50.4556E-06     104.234E-06    -1.60627E-06    -2.90619E-06     8.11394E-06         1.04493         1.02668         1.02668    -1.83742E-03    -33.8341E-03         1.06052    -330.338E-03         1.04370    -24.9649E-03    -9.36738E-03         1.02535    -5.37214E-03    -9.71971E-03     27.1369E-03
             603              0.              0.              0.              0.              0.              0.              0.              0.     238.974E-06     29.2262E-06    -29.2262E-06     235.372E-06     109.541E-06     109.541E-06    -51.7570E-06    -56.7258E-06    -54.1548E-06    -54.1548E-06     109.368E-06    -968.434E-09    -4.37597E-06     4.37597E-06     109.541E-06     109.541E-06    -51.7570E-06    -56.7258E-06    -54.1548E-06    -54.1548E-06     109.368E-06    -968.434E-09    -4.37597E-06     4.37597E-06         1.09618         1.08299         1.08299     4.08002E-03    -29.1562E-03         1.11215    -352.640E-03         1.09424    -11.9587E-03    -11.9587E-03         1.08184    -3.23891E-03    -14.6354E-03     14.6354E-03
             604              0.              0.              0.              0.              0.              0.              0.              0.     238.974E-06     29.2262E-06     29.2262E-06     235.372E-06     109.541E-06     109.541E-06    -51.7570E-06    -56.7258E-06    -54.1548E-06    -54.1548E-06     109.368E-06     968.434E-09    -4.37597E-06    -4.37597E-06     109.541E-06     109.541E-06    -51.7570E-06    -56.7258E-06    -54.1548E-06    -54.1548E-06     109.368E-06     968.434E-09    -4.37597E-06    -4.37597E-06         1.09618         1.08299         1.08299     4.08002E-03    -29.1562E-03         1.11215    -352.640E-03         1.09424    -11.9587E-03    -11.9587E-03         1.08184     3.23891E-03    -14.6354E-03    -14.6354E-03
             605              0.              0.              0.              0.              0.              0.              0.              0.     257.875E-06     28.2578E-06     78.5145E-06     244.001E-06     104.434E-06     104.434E-06    -49.3299E-06    -54.1134E-06    -52.7874E-06    -50.4556E-06     104.234E-06     1.60627E-06    -2.90619E-06    -8.11394E-06     104.434E-06     104.434E-06    -49.3299E-06    -54.1134E-06    -52.7874E-06    -50.4556E-06     104.234E-06     1.60627E-06    -2.90619E-06    -8.11394E-06         1.04493         1.02668         1.02668    -1.83742E-03    -33.8341E-03         1.06052    -330.338E-03         1.04370    -24.9649E-03    -9.36738E-03         1.02535     5.37214E-03    -9.71971E-03    -27.1369E-03
             606              0.              0.              0.              0.              0.              0.              0.              0.     278.046E-06     28.0306E-06     129.318E-06     244.542E-06     99.3212E-06     99.3212E-06    -46.9995E-06    -51.3525E-06    -49.7686E-06    -48.4841E-06     99.2220E-06     1.27174E-06    -3.36594E-06    -315.418E-09     99.3212E-06     99.3212E-06    -46.9995E-06    -51.3525E-06    -49.7686E-06    -48.4841E-06     99.2220E-06     1.27174E-06    -3.36594E-06    -315.418E-09     993.625E-03     985.282E-03     985.282E-03     6.54857E-03    -22.5687E-03         1.00785    -323.087E-03     992.626E-03    -11.9738E-03    -3.38235E-03     984.618E-03     4.25331E-03    -11.2573E-03    -1.05491E-03
             607              0.              0.              0.              0.              0.              0.              0.              0.     199.786E-06     24.5998E-06    -124.122E-06     154.605E-06     91.4259E-06     91.4259E-06    -38.8842E-06    -51.6078E-06    -51.1551E-06    -38.8649E-06     90.9538E-06    -3.23338E-06     567.528E-09     14.5747E-06     91.4259E-06     91.4259E-06    -38.8842E-06    -51.6078E-06    -51.1551E-06    -38.8649E-06     90.9538E-06    -3.23338E-06     567.528E-09     14.5747E-06     917.356E-03     920.755E-03     920.755E-03     49.1161E-03    -35.9912E-03     956.747E-03    -311.293E-03     907.798E-03    -32.9633E-03     49.2456E-03     917.598E-03    -10.8140E-03     1.89809E-03     48.7447E-03
             608              0.              0.              0.              0.              0.              0.              0.              0.     162.397E-06     23.8820E-06    -84.5729E-06     136.565E-06     102.976E-06     102.976E-06    -45.4956E-06    -56.3644E-06    -51.7406E-06    -49.5594E-06     102.416E-06    -2.77315E-06     663.198E-09     3.78451E-06     102.976E-06     102.976E-06    -45.4956E-06    -56.3644E-06    -51.7406E-06    -49.5594E-06     102.416E-06    -2.77315E-06     663.198E-09     3.78451E-06         1.03161         1.05817         1.05817     65.0483E-03    -7.65280E-03         1.06582    -371.854E-03         1.02515     23.2758E-03     37.8662E-03         1.05442    -9.27475E-03     2.21805E-03     12.6572E-03
             609              0.              0.              0.              0.              0.              0.              0.              0.     130.248E-06     25.0881E-06    -25.0881E-06     125.323E-06     102.831E-06     102.831E-06    -48.1091E-06    -53.4116E-06    -50.7044E-06    -50.7044E-06     102.720E-06    -1.20601E-06     63.7566E-09    -63.7566E-09     102.831E-06     102.831E-06    -48.1091E-06    -53.4116E-06    -50.7044E-06    -50.7044E-06     102.720E-06    -1.20601E-06     63.7566E-09    -63.7566E-09         1.02811         1.12181         1.12181     112.178E-03     76.7095E-03         1.04510    -436.900E-03         1.02588     94.8175E-03     94.8175E-03         1.12106    -4.03347E-03     213.233E-06    -213.233E-06
             610              0.              0.              0.              0.              0.              0.              0.              0.     130.248E-06     25.0881E-06     25.0881E-06     125.323E-06     102.831E-06     102.831E-06    -48.1091E-06    -53.4116E-06    -50.7044E-06    -50.7044E-06     102.720E-06     1.20601E-06     63.7566E-09     63.7566E-09     102.831E-06     102.831E-06    -48.1091E-06    -53.4116E-06    -50.7044E-06    -50.7044E-06     102.720E-06     1.20601E-06     63.7566E-09     63.7566E-09         1.02811         1.12181         1.12181     112.178E-03     76.7095E-03         1.04510    -436.900E-03         1.02588     94.8175E-03     94.8175E-03         1.12106     4.03347E-03     213.233E-06     213.233E-06
             611              0.              0.              0.              0.              0.              0.              0.              0.     162.397E-06     23.8820E-06     84.5729E-06     136.565E-06     102.976E-06     102.976E-06    -45.4956E-06    -56.3644E-06    -51.7406E-06    -49.5594E-06     102.416E-06     2.77315E-06     663.198E-09    -3.78451E-06     102.976E-06     102.976E-06    -45.4956E-06    -56.3644E-06    -51.7406E-06    -49.5594E-06     102.416E-06     2.77315E-06     663.198E-09    -3.78451E-06         1.03161         1.05817         1.05817     65.0483E-03    -7.65280E-03         1.06582    -371.854E-03         1.02515     23.2758E-03     37.8662E-03         1.05442     9.27475E-03     2.21805E-03    -12.6572E-03
             612              0.              0.              0.              0.              0.              0.              0.              0.     199.786E-06     24.5998E-06     124.122E-06     154.605E-06     91.4259E-06     91.4259E-06    -38.8842E-06    -51.6078E-06    -51.1551E-06    -38.8649E-06     90.9538E-06     3.23338E-06     567.528E-09    -14.5747E-06     91.4259E-06     91.4259E-06    -38.8842E-06    -51.6078E-06    -51.1551E-06    -38.8649E-06     90.9538E-06     3.23338E-06     567.528E-09    -14.5747E-06     917.356E-03     920.755E-03     920.755E-03     49.1161E-03    -35.9912E-03     956.747E-03    -311.293E-03     907.798E-03    -32.9633E-03     49.2456E-03     917.598E-03     10.8140E-03     1.89809E-03    -48.7447E-03
             613              0.              0.              0.              0.              0.              0.              0.              0.     139.114E-06     16.6690E-06    -122.386E-06     64.0037E-06     94.2537E-06     94.2537E-06    -26.6193E-06    -66.1659E-06    -26.3983E-06    -57.5103E-06     85.3771E-06    -2.03032E-06     11.3069E-06    -37.1433E-06     94.2537E-06     94.2537E-06    -26.6193E-06    -66.1659E-06    -26.3983E-06    -57.5103E-06     85.3771E-06    -2.03032E-06     11.3069E-06    -37.1433E-06     969.310E-03         1.11668         1.11668     308.169E-03     43.6434E-03         1.07304    -489.499E-03     877.944E-03     309.647E-03     101.541E-03         1.05731    -6.79036E-03     37.8157E-03    -124.225E-03
             614              0.              0.              0.              0.              0.              0.              0.              0.     70.8647E-06     16.3623E-06    -56.8012E-06     39.0858E-06     78.6004E-06     78.6004E-06    -28.0832E-06    -48.9114E-06    -27.8702E-06    -45.5354E-06     75.0114E-06    -2.57655E-06     10.8930E-06    -29.3772E-06     78.6004E-06     78.6004E-06    -28.0832E-06    -48.9114E-06    -27.8702E-06    -45.5354E-06     75.0114E-06    -2.57655E-06     10.8930E-06    -29.3772E-06     795.706E-03         1.05743         1.05743     343.830E-03     204.511E-03     852.922E-03    -535.258E-03     756.061E-03     345.255E-03     227.093E-03         1.03343    -8.61723E-03     36.4315E-03    -98.2515E-03
             615              0.              0.              0.              0.              0.              0.              0.              0.     45.7805E-06     17.8570E-06    -17.8570E-06     38.1852E-06     68.3359E-06     68.3359E-06    -32.0624E-06    -34.4930E-06    -32.7367E-06    -32.7367E-06     67.2539E-06    -1.49474E-06     12.0937E-06    -12.0937E-06     68.3359E-06     68.3359E-06    -32.0624E-06    -34.4930E-06    -32.7367E-06    -32.7367E-06     67.2539E-06    -1.49474E-06     12.0937E-06    -12.0937E-06     679.871E-03         1.04661         1.04661     375.053E-03     358.795E-03     687.819E-03    -593.487E-03     679.327E-03     370.543E-03     370.543E-03         1.03938    -4.99912E-03     40.4472E-03    -40.4472E-03
             616              0.              0.              0.              0.              0.              0.              0.              0.     45.7805E-06     17.8570E-06     17.8570E-06     38.1852E-06     68.3359E-06     68.3359E-06    -32.0624E-06    -34.4930E-06    -32.7367E-06    -32.7367E-06     67.2539E-06     1.49474E-06     12.0937E-06     12.0937E-06     68.3359E-06     68.3359E-06    -32.0624E-06    -34.4930E-06    -32.7367E-06    -32.7367E-06     67.2539E-06     1.49474E-06     12.0937E-06     12.0937E-06     679.871E-03         1.04661         1.04661     375.053E-03     358.795E-03     687.819E-03    -593.487E-03     679.327E-03     370.543E-03     370.543E-03         1.03938     4.99912E-03     40.4472E-03     40.4472E-03
             617              0.              0.              0.              0.              0.              0.              0.              0.     70.8647E-06     16.3623E-06     56.8012E-06     39.0858E-06     78.6004E-06     78.6004E-06    -28.0832E-06    -48.9114E-06    -27.8702E-06    -45.5354E-06     75.0114E-06     2.57655E-06     10.8930E-06     29.3772E-06     78.6004E-06     78.6004E-06    -28.0832E-06    -48.9114E-06    -27.8702E-06    -45.5354E-06     75.0114E-06     2.57655E-06     10.8930E-06     29.3772E-06     795.706E-03         1.05743         1.05743     343.830E-03     204.511E-03     852.922E-03    -535.258E-03     756.061E-03     345.255E-03     227.093E-03         1.03343     8.61723E-03     36.4315E-03     98.2515E-03
             618              0.              0.              0.              0.              0.              0.              0.              0.     139.114E-06     16.6690E-06     122.386E-06     64.0037E-06     94.2537E-06     94.2537E-06    -26.6193E-06    -66.1659E-06    -26.3983E-06    -57.5103E-06     85.3771E-06     2.03032E-06     11.3069E-06     37.1433E-06     94.2537E-06     94.2537E-06    -26.6193E-06    -66.1659E-06    -26.3983E-06    -57.5103E-06     85.3771E-06     2.03032E-06     11.3069E-06     37.1433E-06     969.310E-03         1.11668         1.11668     308.169E-03     43.6434E-03         1.07304    -489.499E-03     877.944E-03     309.647E-03     101.541E-03         1.05731     6.79036E-03     37.8157E-03     124.225E-03
             619     751.097E-03    -56.0420E-03     398.310E-03    -634.315E-03     751.097E-03    -56.0420E-03     398.310E-03    -634.315E-03              0.     56.0420E-39    -398.310E-39     634.315E-39     80.9186E-06     80.9186E-06    -20.6402E-06    -58.1952E-06    -20.6402E-06    -20.6402E-06     43.3635E-06     23.2934E-21     16.6690E-06    -122.386E-06     80.9186E-06     80.9186E-06    -20.6402E-06    -58.1952E-06    -20.6402E-06    -20.6402E-06     43.3635E-06     23.2934E-21     16.6690E-06    -122.386E-06     833.806E-03         1.23102         1.23102     551.697E-03     300.492E-03     930.527E-03    -694.403E-03     741.218E-03     551.697E-03     551.697E-03     979.815E-03     78.7503E-18     55.7490E-03    -409.318E-03
             620     844.425E-03    -117.418E-03     176.806E-03    -817.317E-03     844.425E-03    -117.418E-03     176.806E-03    -817.317E-03              0.     117.418E-39    -176.806E-39     817.317E-39     42.6046E-06     42.6046E-06    -12.3706E-06    -28.2601E-06    -12.3706E-06    -12.3706E-06     26.7152E-06    -8.61012E-21     16.3623E-06    -56.8012E-06     42.6046E-06     42.6046E-06    -12.3706E-06    -28.2601E-06    -12.3706E-06    -12.3706E-06     26.7152E-06    -8.61012E-21     16.3623E-06    -56.8012E-06     430.817E-03     938.554E-03     938.554E-03     570.827E-03     464.543E-03     474.011E-03    -657.975E-03     399.691E-03     570.827E-03     570.827E-03     832.270E-03    -29.4259E-18     54.7233E-03    -189.971E-03
             621     839.526E-03    -128.156E-03     128.156E-03    -819.729E-03     839.526E-03    -128.156E-03     128.156E-03    -819.729E-03              0.     128.156E-39    -128.156E-39     819.729E-39     29.9423E-06     29.9423E-06    -12.0405E-06    -15.8382E-06    -12.0405E-06    -12.0405E-06     26.1446E-06     2.96412E-21     17.8570E-06    -17.8570E-06     29.9423E-06     29.9423E-06    -12.0405E-06    -15.8382E-06    -12.0405E-06    -12.0405E-06     26.1446E-06     2.96412E-21     17.8570E-06    -17.8570E-06     294.346E-03     883.527E-03     883.527E-03     602.705E-03     577.303E-03     306.224E-03    -687.845E-03     291.865E-03     602.705E-03     602.705E-03     858.124E-03     9.63879E-18     59.7225E-03    -59.7225E-03
             622     839.526E-03    -128.156E-03    -128.156E-03    -819.729E-03     839.526E-03    -128.156E-03    -128.156E-03    -819.729E-03              0.     128.156E-39     128.156E-39     819.729E-39     29.9423E-06     29.9423E-06    -12.0405E-06    -15.8382E-06    -12.0405E-06    -12.0405E-06     26.1446E-06    -3.52142E-21     17.8570E-06     17.8570E-06     29.9423E-06     29.9423E-06    -12.0405E-06    -15.8382E-06    -12.0405E-06    -12.0405E-06     26.1446E-06    -3.52142E-21     17.8570E-06     17.8570E-06     294.346E-03     883.527E-03     883.527E-03     602.705E-03     577.303E-03     306.224E-03    -687.845E-03     291.865E-03     602.705E-03     602.705E-03     858.124E-03    -11.8365E-18     59.7225E-03     59.7225E-03
             623     844.425E-03    -117.418E-03    -176.806E-03    -817.317E-03     844.425E-03    -117.418E-03    -176.806E-03    -817.317E-03              0.     117.418E-39     176.806E-39     817.317E-39     42.6046E-06     42.6046E-06    -12.3706E-06    -28.2601E-06    -12.3706E-06    -12.3706E-06     26.7152E-06    -1.92361E-21     16.3623E-06     56.8012E-06     42.6046E-06     42.6046E-06    -12.3706E-06    -28.2601E-06    -12.3706E-06    -12.3706E-06     26.7152E-06    -1.92361E-21     16.3623E-06     56.8012E-06     430.817E-03     938.554E-03     938.554E-03     570.827E-03     464.543E-03     474.011E-03    -657.975E-03     399.691E-03     570.827E-03     570.827E-03     832.270E-03    -6.07323E-18     54.7233E-03     189.971E-03
             624     751.097E-03    -56.0420E-03    -398.310E-03    -634.315E-03     751.097E-03    -56.0420E-03    -398.310E-03    -634.315E-03              0.     56.0420E-39     398.310E-39     634.315E-39     80.9186E-06     80.9186E-06    -20.6402E-06    -58.1952E-06    -20.6402E-06    -20.6402E-06     43.3635E-06     648.510E-24     16.6690E-06     122.386E-06     80.9186E-06     80.9186E-06    -20.6402E-06    -58.1952E-06    -20.6402E-06    -20.6402E-06     43.3635E-06     648.510E-24     16.6690E-06     122.386E-06     833.806E-03         1.23102         1.23102     551.697E-03     300.492E-03     930.527E-03    -694.403E-03     741.218E-03     551.697E-03     551.697E-03     979.815E-03     1.47723E-18     55.7490E-03     409.318E-03
             625              0.              0.              0.              0.              0.              0.              0.              0.     2.45259E-03     74.2499E-06    -123.750E-06     2.44834E-03     100.000E-06     100.000E-06    -49.4999E-06    -49.5001E-06    -49.5000E-06    -49.5000E-06     100.000E-06    -56.1986E-12    -171.432E-12     57.9965E-12     100.000E-06     100.000E-06    -49.4999E-06    -49.5001E-06    -49.5000E-06    -49.5000E-06     100.000E-06    -56.1986E-12    -171.432E-12     57.9965E-12         1.00000              1.              1.     657.228E-09    -764.260E-09         1.00000    -333.333E-03         1.00000    -224.004E-09     116.972E-09              1.    -187.955E-09    -573.350E-09     193.968E-09
             626              0.              0.              0.              0.              0.              0.              0.              0.     2.45059E-03     74.2500E-06    -74.2500E-06     2.44834E-03    100.0000E-06    100.0000E-06    -49.4999E-06    -49.5001E-06    -49.5000E-06    -49.5000E-06    100.0000E-06    -72.6791E-12     33.5959E-12    -33.5959E-12    100.0000E-06    100.0000E-06    -49.4999E-06    -49.5001E-06    -49.5000E-06    -49.5000E-06    100.0000E-06    -72.6791E-12     33.5959E-12    -33.5959E-12              1.              1.              1.     389.759E-09    -403.971E-09         1.00000    -333.333E-03              1.    -7.10643E-09    -7.10647E-09              1.    -243.074E-09     112.361E-09    -112.361E-09
             627              0.              0.              0.              0.              0.              0.              0.              0.     2.44959E-03     74.2500E-06    -24.7500E-06     2.44834E-03     100.000E-06     100.000E-06    -49.5000E-06    -49.5000E-06    -49.5000E-06    -49.5000E-06     100.000E-06     53.0406E-12    -22.0223E-12     31.5016E-12     100.000E-06     100.000E-06    -49.5000E-06    -49.5000E-06    -49.5000E-06    -49.5000E-06     100.000E-06     53.0406E-12    -22.0223E-12     31.5016E-12              1.              1.              1.     265.298E-09    -294.420E-09         1.00000    -333.333E-03         1.00000    -12.4148E-09    -16.7074E-09              1.     177.393E-09    -73.6532E-09     105.357E-09
             628              0.              0.              0.              0.              0.              0.              0.              0.     2.44959E-03     74.2500E-06     24.7500E-06     2.44834E-03     100.000E-06     100.000E-06    -49.5000E-06    -49.5000E-06    -49.5000E-06    -49.5000E-06     100.000E-06    -53.0406E-12    -22.0223E-12    -31.5016E-12     100.000E-06     100.000E-06    -49.5000E-06    -49.5000E-06    -49.5000E-06    -49.5000E-06     100.000E-06    -53.0406E-12    -22.0223E-12    -31.5016E-12              1.              1.              1.     265.323E-09    -294.446E-09         1.00000    -333.333E-03         1.00000    -12.4151E-09    -16.7076E-09              1.    -177.393E-09    -73.6533E-09    -105.357E-09
             629              0.              0.              0.              0.              0.              0.              0.              0.     2.45059E-03     74.2500E-06     74.2500E-06     2.44834E-03    100.0000E-06    100.0000E-06    -49.4999E-06    -49.5001E-06    -49.5000E-06    -49.5000E-06    100.0000E-06     72.6791E-12     33.5959E-12     33.5959E-12    100.0000E-06    100.0000E-06    -49.4999E-06    -49.5001E-06    -49.5000E-06    -49.5000E-06    100.0000E-06     72.6791E-12     33.5959E-12     33.5959E-12              1.              1.              1.     389.766E-09    -403.979E-09         1.00000    -333.333E-03              1.    -7.10652E-09    -7.10645E-09              1.     243.074E-09     112.361E-09     112.361E-09
             630              0.              0.              0.              0.              0.              0.              0.              0.     2.45259E-03     74.2499E-06     123.750E-06     2.44834E-03     100.000E-06     100.000E-06    -49.4999E-06    -49.5001E-06    -49.5000E-06    -49.5000E-06     100.000E-06     56.1986E-12    -171.432E-12    -57.9965E-12     100.000E-06     100.000E-06    -49.4999E-06    -49.5001E-06    -49.5000E-06    -49.5000E-06     100.000E-06     56.1986E-12    -171.432E-12    -57.9965E-12         1.00000              1.              1.     657.237E-09    -764.269E-09         1.00000    -333.333E-03         1.00000    -224.004E-09     116.972E-09              1.     187.955E-09    -573.350E-09    -193.968E-09
             631              0.              0.              0.              0.              0.              0.              0.              0.     2.35277E-03     74.2501E-06    -123.750E-06     2.34834E-03    100.0000E-06    100.0000E-06    -49.4999E-06    -49.5001E-06    -49.5000E-06    -49.5000E-06    100.0000E-06     62.7388E-12    -15.7553E-12    -28.3245E-12    100.0000E-06    100.0000E-06    -49.4999E-06    -49.5001E-06    -49.5000E-06    -49.5000E-06    100.0000E-06     62.7388E-12    -15.7553E-12    -28.3245E-12              1.              1.              1.     842.799E-09    -777.841E-09         1.00000    -333.333E-03              1.     222.578E-09    -157.620E-09              1.     209.829E-09    -52.6933E-09    -94.7309E-09
             632              0.              0.              0.              0.              0.              0.              0.              0.     2.35069E-03     74.2500E-06    -74.2500E-06     2.34834E-03     100.000E-06     100.000E-06    -49.4999E-06    -49.5001E-06    -49.5000E-06    -49.5000E-06     100.000E-06     82.3271E-12     7.05058E-12    -7.05062E-12     100.000E-06     100.000E-06    -49.4999E-06    -49.5001E-06    -49.5000E-06    -49.5000E-06     100.000E-06     82.3271E-12     7.05058E-12    -7.05062E-12              1.              1.              1.     458.488E-09    -426.051E-09         1.00000    -333.333E-03              1.     16.2186E-09     16.2186E-09              1.     275.341E-09     23.5805E-09    -23.5807E-09
             633              0.              0.              0.              0.              0.              0.              0.              0.     2.34964E-03     74.2500E-06    -24.7500E-06     2.34834E-03    100.0000E-06    100.0000E-06    -49.5000E-06    -49.5000E-06    -49.5000E-06    -49.5000E-06    100.0000E-06    -60.1341E-12    -2.51882E-12    -278.799E-15    100.0000E-06    100.0000E-06    -49.5000E-06    -49.5000E-06    -49.5000E-06    -49.5000E-06    100.0000E-06    -60.1341E-12    -2.51882E-12    -278.799E-15              1.              1.              1.     327.220E-09    -300.858E-09         1.00000    -333.333E-03    1000.000E-03     12.3439E-09     14.0185E-09              1.    -201.117E-09    -8.42415E-09    -932.438E-12
             634              0.              0.              0.              0.              0.              0.              0.              0.     2.34964E-03     74.2500E-06     24.7500E-06     2.34834E-03    100.0000E-06    100.0000E-06    -49.5000E-06    -49.5000E-06    -49.5000E-06    -49.5000E-06    100.0000E-06     60.1341E-12    -2.51884E-12     278.776E-15    100.0000E-06    100.0000E-06    -49.5000E-06    -49.5000E-06    -49.5000E-06    -49.5000E-06    100.0000E-06     60.1341E-12    -2.51884E-12     278.776E-15              1.              1.              1.     327.248E-09    -300.885E-09         1.00000    -333.333E-03    1000.000E-03     12.3439E-09     14.0185E-09              1.     201.117E-09    -8.42420E-09     932.360E-12
             635              0.              0.              0.              0.              0.              0.              0.              0.     2.35069E-03     74.2500E-06     74.2500E-06     2.34834E-03     100.000E-06     100.000E-06    -49.4999E-06    -49.5001E-06    -49.5000E-06    -49.5000E-06     100.000E-06    -82.3271E-12     7.05058E-12     7.05058E-12     100.000E-06     100.000E-06    -49.4999E-06    -49.5001E-06    -49.5000E-06    -49.5000E-06     100.000E-06    -82.3271E-12     7.05058E-12     7.05058E-12              1.              1.              1.     458.510E-09    -426.073E-09         1.00000    -333.333E-03              1.     16.2185E-09     16.2185E-09              1.    -275.341E-09     23.5805E-09     23.5805E-09
             636              0.              0.              0.              0.              0.              0.              0.              0.     2.35277E-03     74.2501E-06     123.750E-06     2.34834E-03    100.0000E-06    100.0000E-06    -49.4999E-06    -49.5001E-06    -49.5000E-06    -49.5000E-06    100.0000E-06    -62.7388E-12    -15.7553E-12     28.3245E-12    100.0000E-06    100.0000E-06    -49.4999E-06    -49.5001E-06    -49.5000E-06    -49.5000E-06    100.0000E-06    -62.7388E-12    -15.7553E-12     28.3245E-12              1.              1.              1.     842.794E-09    -777.835E-09         1.00000    -333.333E-03              1.     222.579E-09    -157.619E-09              1.    -209.829E-09    -52.6934E-09     94.7308E-09
             637              0.              0.              0.              0.              0.              0.              0.              0.     2.25297E-03     74.2499E-06    -123.750E-06     2.24834E-03     100.000E-06     100.000E-06    -49.4998E-06    -49.5002E-06    -49.5000E-06    -49.5000E-06     100.000E-06    -79.3632E-12     34.2928E-12     57.5160E-12     100.000E-06     100.000E-06    -49.4998E-06    -49.5002E-06    -49.5000E-06    -49.5000E-06     100.000E-06    -79.3632E-12     34.2928E-12     57.5160E-12         1.00000              1.              1.     1.02246E-06    -1.14489E-06         1.00000    -333.333E-03         1.00000    -313.697E-09     191.260E-09              1.    -265.429E-09     114.692E-09     192.361E-09
             638              0.              0.              0.              0.              0.              0.              0.              0.     2.25079E-03     74.2500E-06    -74.2500E-06     2.24834E-03    100.0000E-06    100.0000E-06    -49.4999E-06    -49.5001E-06    -49.5000E-06    -49.5000E-06    100.0000E-06    -108.714E-12    -16.8345E-12     16.8344E-12    100.0000E-06    100.0000E-06    -49.4999E-06    -49.5001E-06    -49.5000E-06    -49.5000E-06    100.0000E-06    -108.714E-12    -16.8345E-12     16.8344E-12              1.              1.              1.     538.921E-09    -605.625E-09         1.00000    -333.333E-03              1.    -33.3517E-09    -33.3516E-09              1.    -363.593E-09    -56.3025E-09     56.3024E-09
             639              0.              0.              0.              0.              0.              0.              0.              0.     2.24970E-03     74.2500E-06    -24.7500E-06     2.24834E-03     100.000E-06     100.000E-06    -49.4999E-06    -49.5001E-06    -49.5000E-06    -49.5000E-06     100.000E-06     78.1729E-12     5.36171E-12     2.29526E-12     100.000E-06     100.000E-06    -49.4999E-06    -49.5001E-06    -49.5000E-06    -49.5000E-06     100.000E-06     78.1729E-12     5.36171E-12     2.29526E-12              1.              1.              1.     384.590E-09    -427.136E-09         1.00000    -333.333E-03              1.    -21.5464E-09    -20.9997E-09              1.     261.448E-09     17.9322E-09     7.67644E-09
             640              0.              0.              0.              0.              0.              0.              0.              0.     2.24970E-03     74.2500E-06     24.7500E-06     2.24834E-03     100.000E-06     100.000E-06    -49.4999E-06    -49.5001E-06    -49.5000E-06    -49.5000E-06     100.000E-06    -78.1730E-12     5.36171E-12    -2.29526E-12     100.000E-06     100.000E-06    -49.4999E-06    -49.5001E-06    -49.5000E-06    -49.5000E-06     100.000E-06    -78.1730E-12     5.36171E-12    -2.29526E-12              1.              1.              1.     384.587E-09    -427.134E-09         1.00000    -333.333E-03              1.    -21.5465E-09    -20.9996E-09              1.    -261.448E-09     17.9321E-09    -7.67645E-09
             641              0.              0.              0.              0.              0.              0.              0.              0.     2.25079E-03     74.2500E-06     74.2500E-06     2.24834E-03    100.0000E-06    100.0000E-06    -49.4999E-06    -49.5001E-06    -49.5000E-06    -49.5000E-06    100.0000E-06     108.714E-12    -16.8345E-12    -16.8345E-12    100.0000E-06    100.0000E-06    -49.4999E-06    -49.5001E-06    -49.5000E-06    -49.5000E-06    100.0000E-06     108.714E-12    -16.8345E-12    -16.8345E-12              1.              1.              1.     538.911E-09    -605.614E-09         1.00000    -333.333E-03              1.    -33.3519E-09    -33.3517E-09              1.     363.593E-09    -56.3025E-09    -56.3025E-09
             642              0.              0.              0.              0.              0.              0.              0.              0.     2.25297E-03     74.2499E-06     123.750E-06     2.24834E-03     100.000E-06     100.000E-06    -49.4998E-06    -49.5002E-06    -49.5000E-06    -49.5000E-06     100.000E-06     79.3632E-12     34.2928E-12    -57.5161E-12     100.000E-06     100.000E-06    -49.4998E-06    -49.5002E-06    -49.5000E-06    -49.5000E-06     100.000E-06     79.3632E-12     34.2928E-12    -57.5161E-12         1.00000              1.              1.     1.02245E-06    -1.14489E-06         1.00000    -333.333E-03         1.00000    -313.696E-09     191.260E-09              1.     265.429E-09     114.692E-09    -192.361E-09
             643              0.              0.              0.              0.              0.              0.              0.              0.     2.15318E-03     74.2502E-06    -123.750E-06     2.14834E-03    100.0000E-06    100.0000E-06    -49.4998E-06    -49.5002E-06    -49.4999E-06    -49.5000E-06    100.0000E-06     112.924E-12    -61.2385E-12    -94.7104E-12    100.0000E-06    100.0000E-06    -49.4998E-06    -49.5002E-06    -49.4999E-06    -49.5000E-06    100.0000E-06     112.924E-12    -61.2385E-12    -94.7104E-12    1000.000E-03    1000.000E-03    1000.000E-03     1.68897E-06    -1.51574E-06         1.00000    -333.333E-03    1000.000E-03     443.164E-09    -269.930E-09    1000.000E-03     377.673E-09    -204.811E-09    -316.757E-09
             644              0.              0.              0.              0.              0.              0.              0.              0.     2.15090E-03     74.2500E-06    -74.2500E-06     2.14834E-03    100.0000E-06    100.0000E-06    -49.4999E-06    -49.5001E-06    -49.5000E-06    -49.5000E-06    100.0000E-06     159.734E-12     30.1319E-12    -30.1318E-12    100.0000E-06    100.0000E-06    -49.4999E-06    -49.5001E-06    -49.5000E-06    -49.5000E-06    100.0000E-06     159.734E-12     30.1319E-12    -30.1318E-12              1.              1.              1.     878.513E-09    -755.506E-09         1.00000    -333.333E-03              1.     61.5037E-09     61.5038E-09              1.     534.226E-09     100.775E-09    -100.775E-09
             645              0.              0.              0.              0.              0.              0.              0.              0.     2.14976E-03     74.2500E-06    -24.7500E-06     2.14834E-03    100.0000E-06    100.0000E-06    -49.4999E-06    -49.5001E-06    -49.5000E-06    -49.5000E-06    100.0000E-06    -113.074E-12    -9.61815E-12    -3.80574E-12    100.0000E-06    100.0000E-06    -49.4999E-06    -49.5001E-06    -49.5000E-06    -49.5000E-06    100.0000E-06    -113.074E-12    -9.61815E-12    -3.80574E-12    1000.000E-03    1000.000E-03    1000.000E-03     615.893E-09    -545.390E-09         1.00000    -333.333E-03    1000.000E-03     34.1110E-09     36.3924E-09    1000.000E-03    -378.175E-09    -32.1677E-09    -12.7282E-09
             646              0.              0.              0.              0.              0.              0.              0.              0.     2.14976E-03     74.2500E-06     24.7500E-06     2.14834E-03    100.0000E-06    100.0000E-06    -49.4999E-06    -49.5001E-06    -49.5000E-06    -49.5000E-06    100.0000E-06     113.074E-12    -9.61816E-12     3.80575E-12    100.0000E-06    100.0000E-06    -49.4999E-06    -49.5001E-06    -49.5000E-06    -49.5000E-06    100.0000E-06     113.074E-12    -9.61816E-12     3.80575E-12    1000.000E-03    1000.000E-03    1000.000E-03     615.892E-09    -545.388E-09         1.00000    -333.333E-03    1000.000E-03     34.1109E-09     36.3923E-09    1000.000E-03     378.175E-09    -32.1677E-09     12.7283E-09
             647              0.              0.              0.              0.              0.              0.              0.              0.     2.15090E-03     74.2500E-06     74.2500E-06     2.14834E-03    100.0000E-06    100.0000E-06    -49.4999E-06    -49.5001E-06    -49.5000E-06    -49.5000E-06    100.0000E-06    -159.734E-12     30.1318E-12     30.1318E-12    100.0000E-06    100.0000E-06    -49.4999E-06    -49.5001E-06    -49.5000E-06    -49.5000E-06    100.0000E-06    -159.734E-12     30.1318E-12     30.1318E-12              1.              1.              1.     878.515E-09    -755.508E-09         1.00000    -333.333E-03              1.     61.5035E-09     61.5037E-09              1.    -534.226E-09     100.775E-09     100.775E-09
             648              0.              0.              0.              0.              0.              0.              0.              0.     2.15318E-03     74.2502E-06     123.750E-06     2.14834E-03    100.0000E-06    100.0000E-06    -49.4998E-06    -49.5002E-06    -49.4999E-06    -49.5000E-06    100.0000E-06    -112.924E-12    -61.2385E-12     94.7104E-12    100.0000E-06    100.0000E-06    -49.4998E-06    -49.5002E-06    -49.4999E-06    -49.5000E-06    100.0000E-06    -112.924E-12    -61.2385E-12     94.7104E-12    1000.000E-03    1000.000E-03    1000.000E-03     1.68897E-06    -1.51574E-06         1.00000    -333.333E-03    1000.000E-03     443.164E-09    -269.930E-09    1000.000E-03    -377.673E-09    -204.811E-09     316.757E-09
             649              0.              0.              0.              0.              0.              0.              0.              0.     2.05342E-03     74.2497E-06    -123.750E-06     2.04834E-03     100.000E-06     100.000E-06    -49.4996E-06    -49.5004E-06    -49.5001E-06    -49.4999E-06     100.000E-06    -168.976E-12     102.125E-12     141.313E-12     100.000E-06     100.000E-06    -49.4996E-06    -49.5004E-06    -49.5001E-06    -49.4999E-06     100.000E-06    -168.976E-12     102.125E-12     141.313E-12         1.00000         1.00000         1.00000     2.36248E-06    -2.61823E-06         1.00000    -333.333E-03         1.00000    -650.290E-09     394.550E-09         1.00000    -565.136E-09     341.557E-09     472.618E-09
             650              0.              0.              0.              0.              0.              0.              0.              0.     2.05103E-03     74.2500E-06    -74.2500E-06     2.04834E-03     100.000E-06     100.000E-06    -49.4998E-06    -49.5002E-06    -49.5000E-06    -49.5000E-06     100.000E-06    -246.587E-12    -49.8199E-12     49.8199E-12     100.000E-06     100.000E-06    -49.4998E-06    -49.5002E-06    -49.5000E-06    -49.5000E-06     100.000E-06    -246.587E-12    -49.8199E-12     49.8199E-12              1.    1000.000E-03    1000.000E-03     1.10455E-06    -1.34243E-06         1.00000    -333.333E-03              1.    -118.939E-09    -118.939E-09    1000.000E-03    -824.704E-09    -166.622E-09     166.622E-09
             651              0.              0.              0.              0.              0.              0.              0.              0.     2.04983E-03     74.2500E-06    -24.7500E-06     2.04834E-03     100.000E-06     100.000E-06    -49.4999E-06    -49.5001E-06    -49.5000E-06    -49.5000E-06     100.000E-06     171.854E-12     16.1106E-12     5.94497E-12     100.000E-06     100.000E-06    -49.4999E-06    -49.5001E-06    -49.5000E-06    -49.5000E-06     100.000E-06     171.854E-12     16.1106E-12     5.94497E-12         1.00000         1.00000         1.00000     819.140E-09    -936.963E-09         1.00000    -333.333E-03         1.00000    -54.9599E-09    -62.8633E-09         1.00000     574.764E-09     53.8818E-09     19.8828E-09
             652              0.              0.              0.              0.              0.              0.              0.              0.     2.04983E-03     74.2500E-06     24.7500E-06     2.04834E-03     100.000E-06     100.000E-06    -49.4999E-06    -49.5001E-06    -49.5000E-06    -49.5000E-06     100.000E-06    -171.854E-12     16.1106E-12    -5.94496E-12     100.000E-06     100.000E-06    -49.4999E-06    -49.5001E-06    -49.5000E-06    -49.5000E-06     100.000E-06    -171.854E-12     16.1106E-12    -5.94496E-12         1.00000         1.00000         1.00000     819.140E-09    -936.964E-09         1.00000    -333.333E-03         1.00000    -54.9600E-09    -62.8632E-09         1.00000    -574.764E-09     53.8817E-09    -19.8828E-09
             653              0.              0.              0.              0.              0.              0.              0.              0.     2.05103E-03     74.2500E-06     74.2500E-06     2.04834E-03     100.000E-06     100.000E-06    -49.4998E-06    -49.5002E-06    -49.5000E-06    -49.5000E-06     100.000E-06     246.587E-12    -49.8199E-12    -49.8199E-12     100.000E-06     100.000E-06    -49.4998E-06    -49.5002E-06    -49.5000E-06    -49.5000E-06     100.000E-06     246.587E-12    -49.8199E-12    -49.8199E-12              1.    1000.000E-03    1000.000E-03     1.10455E-06    -1.34243E-06         1.00000    -333.333E-03              1.    -118.940E-09    -118.939E-09    1000.000E-03     824.704E-09    -166.622E-09    -166.622E-09
             654              0.              0.              0.              0.              0.              0.              0.              0.     2.05342E-03     74.2497E-06     123.750E-06     2.04834E-03     100.000E-06     100.000E-06    -49.4996E-06    -49.5004E-06    -49.5001E-06    -49.4999E-06     100.000E-06     168.976E-12     102.125E-12    -141.313E-12     100.000E-06     100.000E-06    -49.4996E-06    -49.5004E-06    -49.5001E-06    -49.4999E-06     100.000E-06     168.976E-12     102.125E-12    -141.313E-12         1.00000         1.00000         1.00000     2.36248E-06    -2.61823E-06         1.00000    -333.333E-03         1.00000    -650.290E-09     394.550E-09         1.00000     565.137E-09     341.556E-09    -472.618E-09
             655              0.              0.              0.              0.              0.              0.              0.              0.     1.95368E-03     74.2505E-06    -123.750E-06     1.94834E-03    100.0000E-06    100.0000E-06    -49.4994E-06    -49.5006E-06    -49.4999E-06    -49.5001E-06    100.0000E-06     257.536E-12    -165.422E-12    -197.679E-12    100.0000E-06    100.0000E-06    -49.4994E-06    -49.5006E-06    -49.4999E-06    -49.5001E-06    100.0000E-06     257.536E-12    -165.422E-12    -197.679E-12    1000.000E-03    1000.000E-03    1000.000E-03     4.14722E-06    -3.75729E-06         1.00000    -333.333E-03    1000.000E-03     971.771E-09    -581.823E-09    1000.000E-03     861.323E-09    -553.252E-09    -661.132E-09
             656              0.              0.              0.              0.              0.              0.              0.              0.     1.95117E-03     74.2499E-06    -74.2499E-06     1.94834E-03    100.0000E-06    100.0000E-06    -49.4997E-06    -49.5003E-06    -49.5000E-06    -49.5000E-06    100.0000E-06     388.154E-12     81.0015E-12    -81.0015E-12    100.0000E-06    100.0000E-06    -49.4997E-06    -49.5003E-06    -49.5000E-06    -49.5000E-06    100.0000E-06     388.154E-12     81.0015E-12    -81.0015E-12    1000.000E-03         1.00000         1.00000     2.10259E-06    -1.63586E-06         1.00000    -333.334E-03    1000.000E-03     233.367E-09     233.367E-09         1.00000     1.29818E-06     270.908E-09    -270.908E-09
             657              0.              0.              0.              0.              0.              0.              0.              0.     1.94991E-03     74.2501E-06    -24.7500E-06     1.94834E-03    100.0000E-06    100.0000E-06    -49.4998E-06    -49.5002E-06    -49.5000E-06    -49.5000E-06    100.0000E-06    -266.328E-12    -25.0143E-12    -9.45882E-12    100.0000E-06    100.0000E-06    -49.4998E-06    -49.5002E-06    -49.5000E-06    -49.5000E-06    100.0000E-06    -266.328E-12    -25.0143E-12    -9.45882E-12    1000.000E-03    1000.000E-03    1000.000E-03     1.47177E-06    -1.25824E-06         1.00000    -333.333E-03    1000.000E-03     94.8808E-09     118.650E-09    1000.000E-03    -890.730E-09    -83.6599E-09    -31.6348E-09
             658              0.              0.              0.              0.              0.              0.              0.              0.     1.94991E-03     74.2501E-06     24.7500E-06     1.94834E-03    100.0000E-06    100.0000E-06    -49.4998E-06    -49.5002E-06    -49.5000E-06    -49.5000E-06    100.0000E-06     266.328E-12    -25.0143E-12     9.45881E-12    100.0000E-06    100.0000E-06    -49.4998E-06    -49.5002E-06    -49.5000E-06    -49.5000E-06    100.0000E-06     266.328E-12    -25.0143E-12     9.45881E-12    1000.000E-03    1000.000E-03    1000.000E-03     1.47177E-06    -1.25824E-06         1.00000    -333.333E-03    1000.000E-03     94.8809E-09     118.650E-09    1000.000E-03     890.730E-09    -83.6600E-09     31.6348E-09
             659              0.              0.              0.              0.              0.              0.              0.              0.     1.95117E-03     74.2499E-06     74.2499E-06     1.94834E-03    100.0000E-06    100.0000E-06    -49.4997E-06    -49.5003E-06    -49.5000E-06    -49.5000E-06    100.0000E-06    -388.154E-12     81.0015E-12     81.0015E-12    100.0000E-06    100.0000E-06    -49.4997E-06    -49.5003E-06    -49.5000E-06    -49.5000E-06    100.0000E-06    -388.154E-12     81.0015E-12     81.0015E-12    1000.000E-03         1.00000         1.00000     2.10259E-06    -1.63586E-06         1.00000    -333.334E-03    1000.000E-03     233.367E-09     233.367E-09         1.00000    -1.29818E-06     270.908E-09     270.908E-09
             660              0.              0.              0.              0.              0.              0.              0.              0.     1.95368E-03     74.2505E-06     123.750E-06     1.94834E-03    100.0000E-06    100.0000E-06    -49.4994E-06    -49.5006E-06    -49.4999E-06    -49.5001E-06    100.0000E-06    -257.536E-12    -165.422E-12     197.679E-12    100.0000E-06    100.0000E-06    -49.4994E-06    -49.5006E-06    -49.4999E-06    -49.5001E-06    100.0000E-06    -257.536E-12    -165.422E-12     197.679E-12    1000.000E-03    1000.000E-03    1000.000E-03     4.14722E-06    -3.75729E-06         1.00000    -333.333E-03    1000.000E-03     971.771E-09    -581.823E-09    1000.000E-03    -861.323E-09    -553.252E-09     661.132E-09
             661              0.              0.              0.              0.              0.              0.              0.              0.     1.85396E-03     74.2492E-06    -123.750E-06     1.84834E-03     100.000E-06     100.000E-06    -49.4991E-06    -49.5010E-06    -49.5002E-06    -49.4999E-06     100.000E-06    -393.540E-12     267.309E-12     257.414E-12     100.000E-06     100.000E-06    -49.4991E-06    -49.5010E-06    -49.5002E-06    -49.4999E-06     100.000E-06    -393.540E-12     267.309E-12     257.414E-12         1.00000         1.00000         1.00000     6.03354E-06    -6.62451E-06         1.00001    -333.333E-03         1.00000    -1.44589E-06     854.968E-09         1.00000    -1.31619E-06     894.010E-09     860.917E-09
             662              0.              0.              0.              0.              0.              0.              0.              0.     1.85132E-03     74.2501E-06    -74.2501E-06     1.84834E-03     100.000E-06     100.000E-06    -49.4996E-06    -49.5004E-06    -49.5000E-06    -49.5000E-06     100.000E-06    -614.565E-12    -128.471E-12     128.471E-12     100.000E-06     100.000E-06    -49.4996E-06    -49.5004E-06    -49.5000E-06    -49.5000E-06     100.000E-06    -614.565E-12    -128.471E-12     128.471E-12         1.00000    1000.000E-03    1000.000E-03     2.42986E-06    -3.32007E-06         1.00000    -333.333E-03         1.00000    -445.105E-09    -445.105E-09    1000.000E-03    -2.05540E-06    -429.669E-09     429.669E-09
             663              0.              0.              0.              0.              0.              0.              0.              0.     1.85000E-03     74.2499E-06    -24.7500E-06     1.84834E-03     100.000E-06     100.000E-06    -49.4997E-06    -49.5003E-06    -49.5000E-06    -49.5000E-06     100.000E-06     415.638E-12     40.9358E-12     13.7038E-12     100.000E-06     100.000E-06    -49.4997E-06    -49.5003E-06    -49.5000E-06    -49.5000E-06     100.000E-06     415.638E-12     40.9358E-12     13.7038E-12         1.00000         1.00000         1.00000     1.96779E-06    -2.34348E-06         1.00000    -333.333E-03         1.00000    -162.423E-09    -213.262E-09         1.00000     1.39009E-06     136.909E-09     45.8320E-09
             664              0.              0.              0.              0.              0.              0.              0.              0.     1.85000E-03     74.2499E-06     24.7500E-06     1.84834E-03     100.000E-06     100.000E-06    -49.4997E-06    -49.5003E-06    -49.5000E-06    -49.5000E-06     100.000E-06    -415.638E-12     40.9358E-12    -13.7038E-12     100.000E-06     100.000E-06    -49.4997E-06    -49.5003E-06    -49.5000E-06    -49.5000E-06     100.000E-06    -415.638E-12     40.9358E-12    -13.7038E-12         1.00000         1.00000         1.00000     1.96779E-06    -2.34347E-06         1.00000    -333.333E-03         1.00000    -162.423E-09    -213.262E-09         1.00000    -1.39009E-06     136.909E-09    -45.8321E-09
             665              0.              0.              0.              0.              0.              0.              0.              0.     1.85132E-03     74.2501E-06     74.2501E-06     1.84834E-03     100.000E-06     100.000E-06    -49.4996E-06    -49.5004E-06    -49.5000E-06    -49.5000E-06     100.000E-06     614.565E-12    -128.471E-12    -128.471E-12     100.000E-06     100.000E-06    -49.4996E-06    -49.5004E-06    -49.5000E-06    -49.5000E-06     100.000E-06     614.565E-12    -128.471E-12    -128.471E-12         1.00000    1000.000E-03    1000.000E-03     2.42986E-06    -3.32007E-06         1.00000    -333.333E-03         1.00000    -445.105E-09    -445.105E-09    1000.000E-03     2.05540E-06    -429.669E-09    -429.669E-09
             666              0.              0.              0.              0.              0.              0.              0.              0.     1.85396E-03     74.2492E-06     123.750E-06     1.84834E-03     100.000E-06     100.000E-06    -49.4991E-06    -49.5010E-06    -49.5002E-06    -49.4999E-06     100.000E-06     393.540E-12     267.309E-12    -257.414E-12     100.000E-06     100.000E-06    -49.4991E-06    -49.5010E-06    -49.5002E-06    -49.4999E-06     100.000E-06     393.540E-12     267.309E-12    -257.414E-12         1.00000         1.00000         1.00000     6.03354E-06    -6.62451E-06         1.00001    -333.333E-03         1.00000    -1.44589E-06     854.968E-09         1.00000     1.31619E-06     894.010E-09    -860.917E-09
             667              0.              0.              0.              0.              0.              0.              0.              0.     1.75428E-03     74.2512E-06    -123.750E-06     1.74834E-03     99.9999E-06     99.9999E-06    -49.4984E-06    -49.5015E-06    -49.4997E-06    -49.5002E-06     99.9999E-06     601.505E-12    -429.256E-12    -302.175E-12     99.9999E-06     99.9999E-06    -49.4984E-06    -49.5015E-06    -49.4997E-06    -49.5002E-06     99.9999E-06     601.505E-12    -429.256E-12    -302.175E-12     999.999E-03     999.999E-03     999.999E-03     10.6156E-06    -9.72907E-06         1.00001    -333.333E-03     999.999E-03     2.12895E-06    -1.24231E-06     999.999E-03     2.01172E-06    -1.43564E-06    -1.01062E-06
             668              0.              0.              0.              0.              0.              0.              0.              0.     1.75149E-03     74.2499E-06    -74.2499E-06     1.74834E-03     99.9999E-06     99.9999E-06    -49.4993E-06    -49.5006E-06    -49.5000E-06    -49.5000E-06     99.9999E-06     976.579E-12     203.036E-12    -203.036E-12     99.9999E-06     99.9999E-06    -49.4993E-06    -49.5006E-06    -49.5000E-06    -49.5000E-06     99.9999E-06     976.579E-12     203.036E-12    -203.036E-12     999.999E-03         1.00000         1.00000     5.27687E-06    -3.59418E-06         1.00000    -333.334E-03     999.999E-03     841.343E-09     841.343E-09         1.00000     3.26615E-06     679.049E-09    -679.049E-09
             669              0.              0.              0.              0.              0.              0.              0.              0.     1.75009E-03     74.2502E-06    -24.7500E-06     1.74834E-03     99.9999E-06     99.9999E-06    -49.4995E-06    -49.5005E-06    -49.5000E-06    -49.5000E-06     99.9999E-06    -647.451E-12    -63.4265E-12    -19.1597E-12     99.9999E-06     99.9999E-06    -49.4995E-06    -49.5005E-06    -49.5000E-06    -49.5000E-06     99.9999E-06    -647.451E-12    -63.4265E-12    -19.1597E-12     999.999E-03    1000.000E-03    1000.000E-03     3.75798E-06    -3.10876E-06         1.00000    -333.333E-03     999.999E-03     271.222E-09     378.007E-09    1000.000E-03    -2.16539E-06    -212.129E-09    -64.0791E-09
             670              0.              0.              0.              0.              0.              0.              0.              0.     1.75009E-03     74.2502E-06     24.7500E-06     1.74834E-03     99.9999E-06     99.9999E-06    -49.4995E-06    -49.5005E-06    -49.5000E-06    -49.5000E-06     99.9999E-06     647.451E-12    -63.4266E-12     19.1597E-12     99.9999E-06     99.9999E-06    -49.4995E-06    -49.5005E-06    -49.5000E-06    -49.5000E-06     99.9999E-06     647.451E-12    -63.4266E-12     19.1597E-12     999.999E-03    1000.000E-03    1000.000E-03     3.75798E-06    -3.10875E-06         1.00000    -333.333E-03     999.999E-03     271.222E-09     378.007E-09    1000.000E-03     2.16539E-06    -212.129E-09     64.0791E-09
             671              0.              0.              0.              0.              0.              0.              0.              0.     1.75149E-03     74.2499E-06     74.2499E-06     1.74834E-03     99.9999E-06     99.9999E-06    -49.4993E-06    -49.5006E-06    -49.5000E-06    -49.5000E-06     99.9999E-06    -976.579E-12     203.036E-12     203.036E-12     99.9999E-06     99.9999E-06    -49.4993E-06    -49.5006E-06    -49.5000E-06    -49.5000E-06     99.9999E-06    -976.579E-12     203.036E-12     203.036E-12     999.999E-03         1.00000         1.00000     5.27686E-06    -3.59418E-06         1.00000    -333.334E-03     999.999E-03     841.343E-09     841.343E-09         1.00000    -3.26615E-06     679.049E-09     679.049E-09
             672              0.              0.              0.              0.              0.              0.              0.              0.     1.75428E-03     74.2512E-06     123.750E-06     1.74834E-03     99.9999E-06     99.9999E-06    -49.4984E-06    -49.5015E-06    -49.4997E-06    -49.5002E-06     99.9999E-06    -601.505E-12    -429.256E-12     302.175E-12     99.9999E-06     99.9999E-06    -49.4984E-06    -49.5015E-06    -49.4997E-06    -49.5002E-06     99.9999E-06    -601.505E-12    -429.256E-12     302.175E-12     999.999E-03     999.999E-03     999.999E-03     10.6156E-06    -9.72907E-06         1.00001    -333.333E-03     999.999E-03     2.12895E-06    -1.24231E-06     999.999E-03    -2.01172E-06    -1.43564E-06     1.01062E-06
             673              0.              0.              0.              0.              0.              0.              0.              0.     1.65465E-03     74.2481E-06    -123.750E-06     1.64834E-03     100.000E-06     100.000E-06    -49.4977E-06    -49.5026E-06    -49.5005E-06    -49.4998E-06     100.000E-06    -908.855E-12     675.018E-12     287.457E-12     100.000E-06     100.000E-06    -49.4977E-06    -49.5026E-06    -49.5005E-06    -49.4998E-06     100.000E-06    -908.855E-12     675.018E-12     287.457E-12         1.00000         1.00000         1.00000     15.6906E-06    -17.0570E-06         1.00002    -333.333E-03         1.00000    -3.11042E-06     1.74436E-06         1.00000    -3.03965E-06     2.25759E-06     961.395E-09
             674              0.              0.              0.              0.              0.              0.              0.              0.     1.65168E-03     74.2501E-06    -74.2501E-06     1.64834E-03     100.000E-06     100.000E-06    -49.4990E-06    -49.5011E-06    -49.5001E-06    -49.5001E-06     100.000E-06    -1.54466E-09    -329.905E-12     329.905E-12     100.000E-06     100.000E-06    -49.4990E-06    -49.5011E-06    -49.5001E-06    -49.5001E-06     100.000E-06    -1.54466E-09    -329.905E-12     329.905E-12         1.00000    1000.000E-03    1000.000E-03     5.24215E-06    -8.47541E-06         1.00001    -333.332E-03         1.00000    -1.61663E-06    -1.61663E-06    1000.000E-03    -5.16610E-06    -1.10336E-06     1.10336E-06
             675              0.              0.              0.              0.              0.              0.              0.              0.     1.65020E-03     74.2496E-06    -24.7501E-06     1.64834E-03     100.000E-06     100.000E-06    -49.4992E-06    -49.5009E-06    -49.5000E-06    -49.5001E-06     100.000E-06     1.00918E-09     91.2675E-12     32.4329E-12     100.000E-06     100.000E-06    -49.4992E-06    -49.5009E-06    -49.5000E-06    -49.5001E-06     100.000E-06     1.00918E-09     91.2675E-12     32.4329E-12         1.00000         1.00000         1.00000     4.87234E-06    -6.17074E-06         1.00001    -333.333E-03         1.00000    -527.807E-09    -770.577E-09         1.00000     3.37518E-06     305.243E-09     108.471E-09
             676              0.              0.              0.              0.              0.              0.              0.              0.     1.65020E-03     74.2496E-06     24.7501E-06     1.64834E-03     100.000E-06     100.000E-06    -49.4992E-06    -49.5009E-06    -49.5000E-06    -49.5001E-06     100.000E-06    -1.00918E-09     91.2675E-12    -32.4329E-12     100.000E-06     100.000E-06    -49.4992E-06    -49.5009E-06    -49.5000E-06    -49.5001E-06     100.000E-06    -1.00918E-09     91.2675E-12    -32.4329E-12         1.00000         1.00000         1.00000     4.87234E-06    -6.17074E-06         1.00001    -333.333E-03         1.00000    -527.807E-09    -770.577E-09         1.00000    -3.37518E-06     305.243E-09    -108.471E-09
             677              0.              0.              0.              0.              0.              0.              0.              0.     1.65168E-03     74.2501E-06     74.2501E-06     1.64834E-03     100.000E-06     100.000E-06    -49.4990E-06    -49.5011E-06    -49.5001E-06    -49.5001E-06     100.000E-06     1.54466E-09    -329.905E-12    -329.905E-12     100.000E-06     100.000E-06    -49.4990E-06    -49.5011E-06    -49.5001E-06    -49.5001E-06     100.000E-06     1.54466E-09    -329.905E-12    -329.905E-12         1.00000    1000.000E-03    1000.000E-03     5.24215E-06    -8.47541E-06         1.00001    -333.332E-03         1.00000    -1.61663E-06    -1.61663E-06    1000.000E-03     5.16610E-06    -1.10336E-06    -1.10336E-06
             678              0.              0.              0.              0.              0.              0.              0.              0.     1.65465E-03     74.2481E-06     123.750E-06     1.64834E-03     100.000E-06     100.000E-06    -49.4977E-06    -49.5026E-06    -49.5005E-06    -49.4998E-06     100.000E-06     908.855E-12     675.018E-12    -287.457E-12     100.000E-06     100.000E-06    -49.4977E-06    -49.5026E-06    -49.5005E-06    -49.4998E-06     100.000E-06     908.855E-12     675.018E-12    -287.457E-12         1.00000         1.00000         1.00000     15.6906E-06    -17.0570E-06         1.00002    -333.333E-03         1.00000    -3.11042E-06     1.74436E-06         1.00000     3.03965E-06     2.25759E-06    -961.395E-09
             679              0.              0.              0.              0.              0.              0.              0.              0.     1.55505E-03     74.2532E-06    -123.750E-06     1.54834E-03     99.9996E-06     99.9996E-06    -49.4958E-06    -49.5037E-06    -49.4993E-06    -49.5003E-06     99.9996E-06     1.36746E-09    -1.11798E-09    -81.9198E-12     99.9996E-06     99.9996E-06    -49.4958E-06    -49.5037E-06    -49.4993E-06    -49.5003E-06     99.9996E-06     1.36746E-09    -1.11798E-09    -81.9198E-12     999.996E-03     999.997E-03     999.997E-03     27.3606E-06    -25.4906E-06         1.00002    -333.333E-03     999.996E-03     4.29377E-06    -2.42297E-06     999.997E-03     4.57344E-06    -3.73906E-06    -273.979E-09
             680              0.              0.              0.              0.              0.              0.              0.              0.     1.55189E-03     74.2500E-06    -74.2500E-06     1.54834E-03     99.9997E-06     99.9997E-06    -49.4983E-06    -49.5014E-06    -49.4999E-06    -49.4999E-06     99.9997E-06     2.44756E-09     481.328E-12    -481.328E-12     99.9997E-06     99.9997E-06    -49.4983E-06    -49.5014E-06    -49.4999E-06    -49.4999E-06     99.9997E-06     2.44756E-09     481.328E-12    -481.328E-12     999.997E-03    1000.000E-03    1000.000E-03     13.5663E-06    -7.77313E-06         1.00001    -333.335E-03     999.997E-03     2.89658E-06     2.89658E-06    1000.000E-03     8.18580E-06     1.60979E-06    -1.60979E-06
             681              0.              0.              0.              0.              0.              0.              0.              0.     1.55032E-03     74.2507E-06    -24.7497E-06     1.54834E-03     99.9998E-06     99.9998E-06    -49.4986E-06    -49.5012E-06    -49.4999E-06    -49.4999E-06     99.9998E-06    -1.56112E-09    -178.581E-12    -20.3413E-12     99.9998E-06     99.9998E-06    -49.4986E-06    -49.5012E-06    -49.4999E-06    -49.4999E-06     99.9998E-06    -1.56112E-09    -178.581E-12    -20.3413E-12     999.998E-03     999.999E-03     999.999E-03     9.90010E-06    -7.98491E-06         1.00001    -333.334E-03     999.998E-03     773.319E-09     1.14192E-06     999.999E-03    -5.22112E-06    -597.259E-09    -68.0313E-09
             682              0.              0.              0.              0.              0.              0.              0.              0.     1.55032E-03     74.2507E-06     24.7497E-06     1.54834E-03     99.9998E-06     99.9998E-06    -49.4986E-06    -49.5012E-06    -49.4999E-06    -49.4999E-06     99.9998E-06     1.56112E-09    -178.580E-12     20.3414E-12     99.9998E-06     99.9998E-06    -49.4986E-06    -49.5012E-06    -49.4999E-06    -49.4999E-06     99.9998E-06     1.56112E-09    -178.580E-12     20.3414E-12     999.998E-03     999.999E-03     999.999E-03     9.90010E-06    -7.98491E-06         1.00001    -333.334E-03     999.998E-03     773.319E-09     1.14192E-06     999.999E-03     5.22112E-06    -597.259E-09     68.0313E-09
             683              0.              0.              0.              0.              0.              0.              0.              0.     1.55189E-03     74.2500E-06     74.2500E-06     1.54834E-03     99.9997E-06     99.9997E-06    -49.4983E-06    -49.5014E-06    -49.4999E-06    -49.4999E-06     99.9997E-06    -2.44756E-09     481.328E-12     481.328E-12     99.9997E-06     99.9997E-06    -49.4983E-06    -49.5014E-06    -49.4999E-06    -49.4999E-06     99.9997E-06    -2.44756E-09     481.328E-12     481.328E-12     999.997E-03    1000.000E-03    1000.000E-03     13.5663E-06    -7.77313E-06         1.00001    -333.335E-03     999.997E-03     2.89658E-06     2.89658E-06    1000.000E-03    -8.18580E-06     1.60979E-06     1.60979E-06
             684              0.              0.              0.              0.              0.              0.              0.              0.     1.55505E-03     74.2532E-06     123.750E-06     1.54834E-03     99.9996E-06     99.9996E-06    -49.4958E-06    -49.5037E-06    -49.4993E-06    -49.5003E-06     99.9996E-06    -1.36746E-09    -1.11798E-09     81.9198E-12     99.9996E-06     99.9996E-06    -49.4958E-06    -49.5037E-06    -49.4993E-06    -49.5003E-06     99.9996E-06    -1.36746E-09    -1.11798E-09     81.9198E-12     999.996E-03     999.997E-03     999.997E-03     27.3606E-06    -25.4906E-06         1.00002    -333.333E-03     999.996E-03     4.29377E-06    -2.42297E-06     999.997E-03    -4.57344E-06    -3.73906E-06     273.979E-09
             685              0.              0.              0.              0.              0.              0.              0.              0.     1.45551E-03     74.2449E-06    -123.750E-06     1.44834E-03     100.001E-06     100.001E-06    -49.4940E-06    -49.5067E-06    -49.5010E-06    -49.4997E-06     100.001E-06    -2.03085E-09     1.66160E-09    -473.827E-12     100.001E-06     100.001E-06    -49.4940E-06    -49.5067E-06    -49.5010E-06    -49.4997E-06     100.001E-06    -2.03085E-09     1.66160E-09    -473.827E-12         1.00001         1.00001         1.00001     41.0554E-06    -44.0787E-06         1.00005    -333.334E-03         1.00001    -6.07361E-06     3.05246E-06         1.00001    -6.79213E-06     5.55721E-06    -1.58471E-06
             686              0.              0.              0.              0.              0.              0.              0.              0.     1.45214E-03     74.2499E-06    -74.2499E-06     1.44834E-03     100.001E-06     100.001E-06    -49.4978E-06    -49.5028E-06    -49.5003E-06    -49.5003E-06     100.001E-06    -3.86204E-09    -851.912E-12     851.912E-12     100.001E-06     100.001E-06    -49.4978E-06    -49.5028E-06    -49.5003E-06    -49.5003E-06     100.001E-06    -3.86204E-09    -851.912E-12     851.912E-12         1.00001         1.00000         1.00000     11.0296E-06    -22.4484E-06         1.00002    -333.330E-03         1.00001    -5.70938E-06    -5.70938E-06         1.00000    -12.9165E-06    -2.84920E-06     2.84920E-06
             687              0.              0.              0.              0.              0.              0.              0.              0.     1.45045E-03     74.2488E-06    -24.7508E-06     1.44834E-03     100.000E-06     100.000E-06    -49.4980E-06    -49.5024E-06    -49.5001E-06    -49.5003E-06     100.000E-06     2.40146E-09     154.813E-12     76.0593E-12     100.000E-06     100.000E-06    -49.4980E-06    -49.5024E-06    -49.5001E-06    -49.5003E-06     100.000E-06     2.40146E-09     154.813E-12     76.0593E-12         1.00000         1.00000         1.00000     12.3570E-06    -16.8212E-06         1.00002    -333.333E-03         1.00000    -1.72245E-06    -2.74152E-06         1.00000     8.03163E-06     517.768E-09     254.379E-09
             688              0.              0.              0.              0.              0.              0.              0.              0.     1.45045E-03     74.2488E-06     24.7508E-06     1.44834E-03     100.000E-06     100.000E-06    -49.4980E-06    -49.5024E-06    -49.5001E-06    -49.5003E-06     100.000E-06    -2.40146E-09     154.813E-12    -76.0594E-12     100.000E-06     100.000E-06    -49.4980E-06    -49.5024E-06    -49.5001E-06    -49.5003E-06     100.000E-06    -2.40146E-09     154.813E-12    -76.0594E-12         1.00000         1.00000         1.00000     12.3570E-06    -16.8212E-06         1.00002    -333.333E-03         1.00000    -1.72245E-06    -2.74152E-06         1.00000    -8.03163E-06     517.768E-09    -254.379E-09
             689              0.              0.              0.              0.              0.              0.              0.              0.     1.45214E-03     74.2499E-06     74.2499E-06     1.44834E-03     100.001E-06     100.001E-06    -49.4978E-06    -49.5028E-06    -49.5003E-06    -49.5003E-06     100.001E-06     3.86204E-09    -851.912E-12    -851.912E-12     100.001E-06     100.001E-06    -49.4978E-06    -49.5028E-06    -49.5003E-06    -49.5003E-06     100.001E-06     3.86204E-09    -851.912E-12    -851.912E-12         1.00001         1.00000         1.00000     11.0296E-06    -22.4484E-06         1.00002    -333.330E-03         1.00001    -5.70938E-06    -5.70938E-06         1.00000     12.9165E-06    -2.84920E-06    -2.84920E-06
             690              0.              0.              0.              0.              0.              0.              0.              0.     1.45551E-03     74.2449E-06     123.750E-06     1.44834E-03     100.001E-06     100.001E-06    -49.4940E-06    -49.5067E-06    -49.5010E-06    -49.4997E-06     100.001E-06     2.03085E-09     1.66160E-09     473.827E-12     100.001E-06     100.001E-06    -49.4940E-06    -49.5067E-06    -49.5010E-06    -49.4997E-06     100.001E-06     2.03085E-09     1.66160E-09     473.827E-12         1.00001         1.00001         1.00001     41.0554E-06    -44.0787E-06         1.00005    -333.334E-03         1.00001    -6.07361E-06     3.05246E-06         1.00001     6.79213E-06     5.55721E-06     1.58471E-06
             691              0.              0.              0.              0.              0.              0.              0.              0.     1.35604E-03     74.2583E-06    -123.750E-06     1.34834E-03     99.9986E-06     99.9986E-06    -49.4890E-06    -49.5096E-06    -49.4985E-06    -49.5001E-06     99.9986E-06     2.91805E-09    -2.84419E-09     2.02393E-09     99.9986E-06     99.9986E-06    -49.4890E-06    -49.5096E-06    -49.4985E-06    -49.5001E-06     99.9986E-06     2.91805E-09    -2.84419E-09     2.02393E-09     999.986E-03     999.988E-03     999.988E-03     70.8100E-06    -67.1140E-06         1.00006    -333.331E-03     999.986E-03     7.32940E-06    -3.62786E-06     999.988E-03     9.75938E-06    -9.51233E-06     6.76900E-06
             692              0.              0.              0.              0.              0.              0.              0.              0.     1.35242E-03     74.2506E-06    -74.2506E-06     1.34834E-03     99.9989E-06     99.9989E-06    -49.4954E-06    -49.5034E-06    -49.4994E-06    -49.4994E-06     99.9989E-06     6.01855E-09     1.13631E-09    -1.13631E-09     99.9989E-06     99.9989E-06    -49.4954E-06    -49.5034E-06    -49.4994E-06    -49.4994E-06     99.9989E-06     6.01855E-09     1.13631E-09    -1.13631E-09     999.989E-03     999.999E-03     999.999E-03     36.7827E-06    -16.8196E-06         1.00002    -333.340E-03     999.989E-03     9.98160E-06     9.98160E-06     999.999E-03     20.1289E-06     3.80035E-06    -3.80036E-06
             693              0.              0.              0.              0.              0.              0.              0.              0.     1.35061E-03     74.2523E-06    -24.7484E-06     1.34834E-03     99.9994E-06     99.9994E-06    -49.4961E-06    -49.5033E-06    -49.4998E-06    -49.4996E-06     99.9994E-06    -3.70416E-09    -495.329E-12     18.5220E-12     99.9994E-06     99.9994E-06    -49.4961E-06    -49.5033E-06    -49.4998E-06    -49.4996E-06     99.9994E-06    -3.70416E-09    -495.329E-12     18.5220E-12     999.994E-03     999.997E-03     999.997E-03     27.5769E-06    -20.8994E-06         1.00002    -333.335E-03     999.994E-03     2.67135E-06     4.00674E-06     999.997E-03    -12.3885E-06    -1.65662E-06     61.9466E-09
             694              0.              0.              0.              0.              0.              0.              0.              0.     1.35061E-03     74.2523E-06     24.7484E-06     1.34834E-03     99.9994E-06     99.9994E-06    -49.4961E-06    -49.5033E-06    -49.4998E-06    -49.4996E-06     99.9994E-06     3.70416E-09    -495.329E-12    -18.5220E-12     99.9994E-06     99.9994E-06    -49.4961E-06    -49.5033E-06    -49.4998E-06    -49.4996E-06     99.9994E-06     3.70416E-09    -495.329E-12    -18.5220E-12     999.994E-03     999.997E-03     999.997E-03     27.5769E-06    -20.8994E-06         1.00002    -333.335E-03     999.994E-03     2.67135E-06     4.00674E-06     999.997E-03     12.3885E-06    -1.65662E-06    -61.9464E-09
             695              0.              0.              0.              0.              0.              0.              0.              0.     1.35242E-03     74.2506E-06     74.2506E-06     1.34834E-03     99.9989E-06     99.9989E-06    -49.4954E-06    -49.5034E-06    -49.4994E-06    -49.4994E-06     99.9989E-06    -6.01855E-09     1.13631E-09     1.13631E-09     99.9989E-06     99.9989E-06    -49.4954E-06    -49.5034E-06    -49.4994E-06    -49.4994E-06     99.9989E-06    -6.01855E-09     1.13631E-09     1.13631E-09     999.989E-03     999.999E-03     999.999E-03     36.7827E-06    -16.8196E-06         1.00002    -333.340E-03     999.989E-03     9.98160E-06     9.98160E-06     999.999E-03    -20.1289E-06     3.80035E-06     3.80036E-06
             696              0.              0.              0.              0.              0.              0.              0.              0.     1.35604E-03     74.2583E-06     123.750E-06     1.34834E-03     99.9986E-06     99.9986E-06    -49.4890E-06    -49.5096E-06    -49.4985E-06    -49.5001E-06     99.9986E-06    -2.91805E-09    -2.84419E-09    -2.02393E-09     99.9986E-06     99.9986E-06    -49.4890E-06    -49.5096E-06    -49.4985E-06    -49.5001E-06     99.9986E-06    -2.91805E-09    -2.84419E-09    -2.02393E-09     999.986E-03     999.988E-03     999.988E-03     70.8100E-06    -67.1140E-06         1.00006    -333.331E-03     999.986E-03     7.32940E-06    -3.62786E-06     999.988E-03    -9.75938E-06    -9.51233E-06    -6.76900E-06
             697              0.              0.              0.              0.              0.              0.              0.              0.     1.25666E-03     74.2367E-06    -123.751E-06     1.24834E-03     100.002E-06     100.002E-06    -49.4844E-06    -49.5177E-06    -49.5019E-06    -49.5001E-06     100.002E-06    -4.31342E-09     4.33922E-09    -5.26427E-09     100.002E-06     100.002E-06    -49.4844E-06    -49.5177E-06    -49.5019E-06    -49.5001E-06     100.002E-06    -4.31342E-09     4.33922E-09    -5.26427E-09         1.00002         1.00002         1.00002     108.927E-06    -113.749E-06         1.00013    -333.338E-03         1.00002    -8.44618E-06     3.63895E-06         1.00002    -14.4262E-06     14.5124E-06    -17.6062E-06
             698              0.              0.              0.              0.              0.              0.              0.              0.     1.25275E-03     74.2486E-06    -74.2486E-06     1.24835E-03     100.002E-06     100.002E-06    -49.4946E-06    -49.5076E-06    -49.5011E-06    -49.5011E-06     100.002E-06    -9.59469E-09    -1.87539E-09     1.87539E-09     100.002E-06     100.002E-06    -49.4946E-06    -49.5076E-06    -49.5011E-06    -49.5011E-06     100.002E-06    -9.59469E-09    -1.87539E-09     1.87539E-09         1.00002         1.00000         1.00000     24.7222E-06    -62.0640E-06         1.00006    -333.322E-03         1.00002    -18.6705E-06    -18.6705E-06         1.00000    -32.0892E-06    -6.27220E-06     6.27220E-06
             699              0.              0.              0.              0.              0.              0.              0.              0.     1.25079E-03     74.2463E-06    -24.7534E-06     1.24834E-03     100.001E-06     100.001E-06    -49.4946E-06    -49.5066E-06    -49.5004E-06    -49.5008E-06     100.001E-06     5.49866E-09     397.287E-12    -37.1934E-12     100.001E-06     100.001E-06    -49.4946E-06    -49.5066E-06    -49.5004E-06    -49.5008E-06     100.001E-06     5.49866E-09     397.287E-12    -37.1934E-12         1.00001         1.00001         1.00001     34.2839E-06    -45.7958E-06         1.00005    -333.332E-03         1.00001    -4.23323E-06    -7.27654E-06         1.00001     18.3902E-06     1.32872E-06    -124.392E-09
             700              0.              0.              0.              0.              0.              0.              0.              0.     1.25079E-03     74.2463E-06     24.7534E-06     1.24834E-03     100.001E-06     100.001E-06    -49.4946E-06    -49.5066E-06    -49.5004E-06    -49.5008E-06     100.001E-06    -5.49866E-09     397.287E-12     37.1934E-12     100.001E-06     100.001E-06    -49.4946E-06    -49.5066E-06    -49.5004E-06    -49.5008E-06     100.001E-06    -5.49866E-09     397.287E-12     37.1934E-12         1.00001         1.00001         1.00001     34.2839E-06    -45.7958E-06         1.00005    -333.332E-03         1.00001    -4.23323E-06    -7.27654E-06         1.00001    -18.3902E-06     1.32872E-06     124.393E-09
             701              0.              0.              0.              0.              0.              0.              0.              0.     1.25275E-03     74.2486E-06     74.2486E-06     1.24835E-03     100.002E-06     100.002E-06    -49.4946E-06    -49.5076E-06    -49.5011E-06    -49.5011E-06     100.002E-06     9.59469E-09    -1.87539E-09    -1.87539E-09     100.002E-06     100.002E-06    -49.4946E-06    -49.5076E-06    -49.5011E-06    -49.5011E-06     100.002E-06     9.59469E-09    -1.87539E-09    -1.87539E-09         1.00002         1.00000         1.00000     24.7222E-06    -62.0640E-06         1.00006    -333.322E-03         1.00002    -18.6705E-06    -18.6705E-06         1.00000     32.0892E-06    -6.27220E-06    -6.27220E-06
             702              0.              0.              0.              0.              0.              0.              0.              0.     1.25666E-03     74.2367E-06     123.751E-06     1.24834E-03     100.002E-06     100.002E-06    -49.4844E-06    -49.5177E-06    -49.5019E-06    -49.5001E-06     100.002E-06     4.31342E-09     4.33922E-09     5.26427E-09     100.002E-06     100.002E-06    -49.4844E-06    -49.5177E-06    -49.5019E-06    -49.5001E-06     100.002E-06     4.31342E-09     4.33922E-09     5.26427E-09         1.00002         1.00002         1.00002     108.927E-06    -113.749E-06         1.00013    -333.338E-03         1.00002    -8.44618E-06     3.63895E-06         1.00002     14.4262E-06     14.5124E-06     17.6062E-06
             703              0.              0.              0.              0.              0.              0.              0.              0.     1.15737E-03     74.2711E-06    -123.748E-06     1.14834E-03     99.9960E-06     99.9960E-06    -49.4711E-06    -49.5249E-06    -49.4973E-06    -49.4987E-06     99.9960E-06     5.53638E-09    -5.93872E-09     11.9440E-09     99.9960E-06     99.9960E-06    -49.4711E-06    -49.5249E-06    -49.4973E-06    -49.4987E-06     99.9960E-06     5.53638E-09    -5.93872E-09     11.9440E-09     999.960E-03     999.965E-03     999.965E-03     184.934E-06    -175.347E-06         1.00014    -333.325E-03     999.960E-03     9.42836E-06     197.784E-09     999.965E-03     18.5163E-06    -19.8619E-06     39.9466E-06
             704              0.              0.              0.              0.              0.              0.              0.              0.     1.15312E-03     74.2530E-06    -74.2530E-06     1.14833E-03     99.9959E-06     99.9959E-06    -49.4872E-06    -49.5087E-06    -49.4979E-06    -49.4979E-06     99.9959E-06     14.3923E-09     3.60553E-09    -3.60554E-09     99.9959E-06     99.9959E-06    -49.4872E-06    -49.5087E-06    -49.4979E-06    -49.4979E-06     99.9959E-06     14.3923E-09     3.60553E-09    -3.60554E-09     999.959E-03     999.996E-03     999.996E-03     109.065E-06    -34.8634E-06         1.00003    -333.357E-03     999.959E-03     37.1027E-06     37.1027E-06     999.996E-03     48.1348E-06     12.0586E-06    -12.0586E-06
             705              0.              0.              0.              0.              0.              0.              0.              0.     1.15100E-03     74.2568E-06    -24.7430E-06     1.14834E-03     99.9973E-06     99.9973E-06    -49.4884E-06    -49.5089E-06    -49.4992E-06    -49.4981E-06     99.9973E-06    -8.53973E-09    -239.846E-12    -339.948E-12     99.9973E-06     99.9973E-06    -49.4884E-06    -49.5089E-06    -49.4992E-06    -49.4981E-06     99.9973E-06    -8.53973E-09    -239.846E-12    -339.948E-12     999.973E-03     999.990E-03     999.990E-03     85.7993E-06    -51.5170E-06         1.00004    -333.342E-03     999.973E-03     13.3706E-06     20.9188E-06     999.990E-03    -28.5610E-06    -802.160E-09    -1.13695E-06
             706              0.              0.              0.              0.              0.              0.              0.              0.     1.15100E-03     74.2568E-06     24.7430E-06     1.14834E-03     99.9973E-06     99.9973E-06    -49.4884E-06    -49.5089E-06    -49.4992E-06    -49.4981E-06     99.9973E-06     8.53973E-09    -239.846E-12     339.948E-12     99.9973E-06     99.9973E-06    -49.4884E-06    -49.5089E-06    -49.4992E-06    -49.4981E-06     99.9973E-06     8.53973E-09    -239.846E-12     339.948E-12     999.973E-03     999.990E-03     999.990E-03     85.7993E-06    -51.5170E-06         1.00004    -333.342E-03     999.973E-03     13.3706E-06     20.9188E-06     999.990E-03     28.5610E-06    -802.160E-09     1.13695E-06
             707              0.              0.              0.              0.              0.              0.              0.              0.     1.15312E-03     74.2530E-06     74.2530E-06     1.14833E-03     99.9959E-06     99.9959E-06    -49.4872E-06    -49.5087E-06    -49.4979E-06    -49.4979E-06     99.9959E-06    -14.3923E-09     3.60553E-09     3.60554E-09     99.9959E-06     99.9959E-06    -49.4872E-06    -49.5087E-06    -49.4979E-06    -49.4979E-06     99.9959E-06    -14.3923E-09     3.60553E-09     3.60554E-09     999.959E-03     999.996E-03     999.996E-03     109.065E-06    -34.8634E-06         1.00003    -333.357E-03     999.959E-03     37.1027E-06     37.1027E-06     999.996E-03    -48.1348E-06     12.0586E-06     12.0586E-06
             708              0.              0.              0.              0.              0.              0.              0.              0.     1.15737E-03     74.2711E-06     123.748E-06     1.14834E-03     99.9960E-06     99.9960E-06    -49.4711E-06    -49.5249E-06    -49.4973E-06    -49.4987E-06     99.9960E-06    -5.53638E-09    -5.93872E-09    -11.9440E-09     99.9960E-06     99.9960E-06    -49.4711E-06    -49.5249E-06    -49.4973E-06    -49.4987E-06     99.9960E-06    -5.53638E-09    -5.93872E-09    -11.9440E-09     999.960E-03     999.965E-03     999.965E-03     184.934E-06    -175.347E-06         1.00014    -333.325E-03     999.960E-03     9.42836E-06     197.784E-09     999.965E-03    -18.5163E-06    -19.8619E-06    -39.9466E-06
             709              0.              0.              0.              0.              0.              0.              0.              0.     1.05823E-03     74.2128E-06    -123.753E-06     1.04834E-03     100.008E-06     100.008E-06    -49.4597E-06    -49.5481E-06    -49.5031E-06    -49.5047E-06     100.008E-06    -7.96602E-09     14.1912E-09    -27.8214E-09     100.008E-06     100.008E-06    -49.4597E-06    -49.5481E-06    -49.5031E-06    -49.5047E-06     100.008E-06    -7.96602E-09     14.1912E-09    -27.8214E-09         1.00008         1.00008         1.00008     298.507E-06    -292.340E-06         1.00037    -333.363E-03         1.00008     8.59394E-06    -2.32137E-06         1.00008    -26.6422E-06     47.4621E-06    -93.0481E-06
             710              0.              0.              0.              0.              0.              0.              0.              0.     1.05361E-03     74.2406E-06    -74.2406E-06     1.04836E-03     100.008E-06     100.008E-06    -49.4853E-06    -49.5224E-06    -49.5038E-06    -49.5038E-06     100.008E-06    -23.1780E-09    -1.13091E-09     1.13091E-09     100.008E-06     100.008E-06    -49.4853E-06    -49.5224E-06    -49.5038E-06    -49.5038E-06     100.008E-06    -23.1780E-09    -1.13091E-09     1.13091E-09         1.00008         1.00002         1.00002     70.7944E-06    -176.788E-06         1.00020    -333.306E-03         1.00008    -52.9902E-06    -52.9902E-06         1.00002    -77.5185E-06    -3.78231E-06     3.78231E-06
             711              0.              0.              0.              0.              0.              0.              0.              0.     1.05126E-03     74.2360E-06    -24.7624E-06     1.04835E-03     100.002E-06     100.002E-06    -49.4835E-06    -49.5183E-06    -49.5007E-06    -49.5010E-06     100.002E-06     12.0718E-09     4.21312E-09    -2.43228E-09     100.002E-06     100.002E-06    -49.4835E-06    -49.5183E-06    -49.5007E-06    -49.5010E-06     100.002E-06     12.0718E-09     4.21312E-09    -2.43228E-09         1.00002         1.00001         1.00001     112.492E-06    -120.201E-06         1.00013    -333.335E-03         1.00002    -2.97075E-06    -4.71475E-06         1.00001     40.3739E-06     14.0907E-06    -8.13470E-06
             712              0.              0.              0.              0.              0.              0.              0.              0.     1.05126E-03     74.2360E-06     24.7624E-06     1.04835E-03     100.002E-06     100.002E-06    -49.4835E-06    -49.5183E-06    -49.5007E-06    -49.5010E-06     100.002E-06    -12.0718E-09     4.21312E-09     2.43228E-09     100.002E-06     100.002E-06    -49.4835E-06    -49.5183E-06    -49.5007E-06    -49.5010E-06     100.002E-06    -12.0718E-09     4.21312E-09     2.43228E-09         1.00002         1.00001         1.00001     112.492E-06    -120.201E-06         1.00013    -333.335E-03         1.00002    -2.97075E-06    -4.71475E-06         1.00001    -40.3739E-06     14.0907E-06     8.13470E-06
             713              0.              0.              0.              0.              0.              0.              0.              0.     1.05361E-03     74.2406E-06     74.2406E-06     1.04836E-03     100.008E-06     100.008E-06    -49.4853E-06    -49.5224E-06    -49.5038E-06    -49.5038E-06     100.008E-06     23.1780E-09    -1.13091E-09    -1.13091E-09     100.008E-06     100.008E-06    -49.4853E-06    -49.5224E-06    -49.5038E-06    -49.5038E-06     100.008E-06     23.1780E-09    -1.13091E-09    -1.13091E-09         1.00008         1.00002         1.00002     70.7944E-06    -176.788E-06         1.00020    -333.306E-03         1.00008    -52.9902E-06    -52.9902E-06         1.00002     77.5185E-06    -3.78231E-06    -3.78231E-06
             714              0.              0.              0.              0.              0.              0.              0.              0.     1.05823E-03     74.2128E-06     123.753E-06     1.04834E-03     100.008E-06     100.008E-06    -49.4597E-06    -49.5481E-06    -49.5031E-06    -49.5047E-06     100.008E-06     7.96602E-09     14.1912E-09     27.8214E-09     100.008E-06     100.008E-06    -49.4597E-06    -49.5481E-06    -49.5031E-06    -49.5047E-06     100.008E-06     7.96602E-09     14.1912E-09     27.8214E-09         1.00008         1.00008         1.00008     298.507E-06    -292.340E-06         1.00037    -333.363E-03         1.00008     8.59394E-06    -2.32137E-06         1.00008     26.6422E-06     47.4621E-06     93.0481E-06
             715              0.              0.              0.              0.              0.              0.              0.              0.     959.257E-06     74.3003E-06    -123.734E-06     948.337E-06     99.9925E-06     99.9925E-06    -49.4262E-06    -49.5663E-06    -49.4984E-06    -49.4940E-06     99.9924E-06     9.25432E-09    -5.88194E-09     50.4076E-09     99.9925E-06     99.9925E-06    -49.4262E-06    -49.5663E-06    -49.4984E-06    -49.4940E-06     99.9924E-06     9.25432E-09    -5.88194E-09     50.4076E-09     999.925E-03     999.942E-03     999.942E-03     485.544E-06    -451.213E-06         1.00039    -333.325E-03     999.924E-03     2.60809E-06     32.0154E-06     999.941E-03     30.9509E-06    -19.6720E-06     168.587E-06
             716              0.              0.              0.              0.              0.              0.              0.              0.     954.092E-06     74.2593E-06    -74.2593E-06     948.294E-06     99.9859E-06     99.9859E-06    -49.4629E-06    -49.5227E-06    -49.4928E-06    -49.4928E-06     99.9858E-06     34.7079E-09     15.4643E-09    -15.4643E-09     99.9859E-06     99.9859E-06    -49.4629E-06    -49.5227E-06    -49.4928E-06    -49.4928E-06     99.9858E-06     34.7079E-09     15.4643E-09    -15.4643E-09     999.857E-03         1.00000         1.00000     343.035E-06    -56.8170E-06         1.00006    -333.429E-03     999.857E-03     143.145E-06     143.145E-06         1.00000     116.080E-06     51.7200E-06    -51.7200E-06
             717              0.              0.              0.              0.              0.              0.              0.              0.     951.558E-06     74.2656E-06    -24.7209E-06     948.333E-06     99.9863E-06     99.9863E-06    -49.4630E-06    -49.5231E-06    -49.4964E-06    -49.4897E-06     99.9863E-06    -17.6542E-09     9.25320E-09    -4.33615E-09     99.9863E-06     99.9863E-06    -49.4630E-06    -49.5231E-06    -49.4964E-06    -49.4897E-06     99.9863E-06    -17.6542E-09     9.25320E-09    -4.33615E-09     999.862E-03     999.946E-03     999.946E-03     285.419E-06    -116.602E-06         1.00006    -333.372E-03     999.862E-03     61.9895E-06     106.918E-06     999.946E-03    -59.0441E-06     30.9472E-06    -14.5022E-06
             718              0.              0.              0.              0.              0.              0.              0.              0.     951.558E-06     74.2656E-06     24.7209E-06     948.333E-06     99.9863E-06     99.9863E-06    -49.4630E-06    -49.5231E-06    -49.4964E-06    -49.4897E-06     99.9863E-06     17.6542E-09     9.25320E-09     4.33615E-09     99.9863E-06     99.9863E-06    -49.4630E-06    -49.5231E-06    -49.4964E-06    -49.4897E-06     99.9863E-06     17.6542E-09     9.25320E-09     4.33615E-09     999.862E-03     999.946E-03     999.946E-03     285.419E-06    -116.602E-06         1.00006    -333.372E-03     999.862E-03     61.9895E-06     106.918E-06     999.946E-03     59.0441E-06     30.9472E-06     14.5022E-06
             719              0.              0.              0.              0.              0.              0.              0.              0.     954.092E-06     74.2593E-06     74.2593E-06     948.294E-06     99.9859E-06     99.9859E-06    -49.4629E-06    -49.5227E-06    -49.4928E-06    -49.4928E-06     99.9858E-06    -34.7079E-09     15.4643E-09     15.4643E-09     99.9859E-06     99.9859E-06    -49.4629E-06    -49.5227E-06    -49.4928E-06    -49.4928E-06     99.9858E-06    -34.7079E-09     15.4643E-09     15.4643E-09     999.857E-03         1.00000         1.00000     343.035E-06    -56.8170E-06         1.00006    -333.429E-03     999.857E-03     143.145E-06     143.145E-06         1.00000    -116.080E-06     51.7200E-06     51.7200E-06
             720              0.              0.              0.              0.              0.              0.              0.              0.     959.257E-06     74.3003E-06     123.734E-06     948.337E-06     99.9925E-06     99.9925E-06    -49.4262E-06    -49.5663E-06    -49.4984E-06    -49.4940E-06     99.9924E-06    -9.25432E-09    -5.88194E-09    -50.4076E-09     99.9925E-06     99.9925E-06    -49.4262E-06    -49.5663E-06    -49.4984E-06    -49.4940E-06     99.9924E-06    -9.25432E-09    -5.88194E-09    -50.4076E-09     999.925E-03     999.942E-03     999.942E-03     485.544E-06    -451.213E-06         1.00039    -333.325E-03     999.924E-03     2.60809E-06     32.0154E-06     999.941E-03    -30.9509E-06    -19.6720E-06    -168.587E-06
             721              0.              0.              0.              0.              0.              0.              0.              0.     860.501E-06     74.1444E-06    -123.768E-06     848.319E-06     100.036E-06     100.036E-06    -49.3985E-06    -49.6374E-06    -49.5049E-06    -49.5308E-06     100.036E-06    -5.69717E-09     45.9538E-09    -118.639E-09     100.036E-06     100.036E-06    -49.3985E-06    -49.6374E-06    -49.5049E-06    -49.5308E-06     100.036E-06    -5.69717E-09     45.9538E-09    -118.639E-09         1.00036         1.00040         1.00040     831.667E-06    -766.046E-06         1.00116    -333.487E-03         1.00036     119.808E-06    -53.3264E-06         1.00040    -19.0541E-06     153.692E-06    -396.787E-06
             722              0.              0.              0.              0.              0.              0.              0.              0.     854.885E-06     74.2058E-06    -74.2058E-06     848.419E-06     100.027E-06     100.027E-06    -49.4557E-06    -49.5714E-06    -49.5136E-06    -49.5136E-06     100.027E-06    -48.7881E-09     9.64187E-09    -9.64187E-09     100.027E-06     100.027E-06    -49.4557E-06    -49.5714E-06    -49.5136E-06    -49.5136E-06     100.027E-06    -48.7881E-09     9.64187E-09    -9.64187E-09         1.00027         1.00012         1.00012     231.758E-06    -542.242E-06         1.00066    -333.268E-03         1.00027    -155.125E-06    -155.125E-06         1.00012    -163.171E-06     32.2470E-06    -32.2470E-06
             723              0.              0.              0.              0.              0.              0.              0.              0.     851.973E-06     74.1931E-06    -24.7928E-06     848.374E-06     99.9993E-06     99.9993E-06    -49.4449E-06    -49.5544E-06    -49.5010E-06    -49.4983E-06     99.9993E-06     27.3826E-09     27.0689E-09    -13.4372E-09     99.9993E-06     99.9993E-06    -49.4449E-06    -49.5544E-06    -49.5010E-06    -49.4983E-06     99.9993E-06     27.3826E-09     27.0689E-09    -13.4372E-09     999.994E-03     999.989E-03     999.989E-03     361.847E-06    -370.609E-06         1.00036    -333.327E-03     999.993E-03    -13.3893E-06     4.90109E-06     999.989E-03     91.5804E-06     90.5315E-06    -44.9403E-06
             724              0.              0.              0.              0.              0.              0.              0.              0.     851.973E-06     74.1931E-06     24.7928E-06     848.374E-06     99.9993E-06     99.9993E-06    -49.4449E-06    -49.5544E-06    -49.5010E-06    -49.4983E-06     99.9993E-06    -27.3826E-09     27.0689E-09     13.4372E-09     99.9993E-06     99.9993E-06    -49.4449E-06    -49.5544E-06    -49.5010E-06    -49.4983E-06     99.9993E-06    -27.3826E-09     27.0689E-09     13.4372E-09     999.994E-03     999.989E-03     999.989E-03     361.847E-06    -370.609E-06         1.00036    -333.327E-03     999.993E-03    -13.3893E-06     4.90109E-06     999.989E-03    -91.5804E-06     90.5315E-06     44.9403E-06
             725              0.              0.              0.              0.              0.              0.              0.              0.     854.885E-06     74.2058E-06     74.2058E-06     848.419E-06     100.027E-06     100.027E-06    -49.4557E-06    -49.5714E-06    -49.5136E-06    -49.5136E-06     100.027E-06     48.7881E-09     9.64187E-09     9.64187E-09     100.027E-06     100.027E-06    -49.4557E-06    -49.5714E-06    -49.5136E-06    -49.5136E-06     100.027E-06     48.7881E-09     9.64187E-09     9.64187E-09         1.00027         1.00012         1.00012     231.758E-06    -542.242E-06         1.00066    -333.268E-03         1.00027    -155.125E-06    -155.125E-06         1.00012     163.171E-06     32.2470E-06     32.2470E-06
             726              0.              0.              0.              0.              0.              0.              0.              0.     860.501E-06     74.1444E-06     123.768E-06     848.319E-06     100.036E-06     100.036E-06    -49.3985E-06    -49.6374E-06    -49.5049E-06    -49.5308E-06     100.036E-06     5.69717E-09     45.9538E-09     118.639E-09     100.036E-06     100.036E-06    -49.3985E-06    -49.6374E-06    -49.5049E-06    -49.5308E-06     100.036E-06     5.69717E-09     45.9538E-09     118.639E-09         1.00036         1.00040         1.00040     831.667E-06    -766.046E-06         1.00116    -333.487E-03         1.00036     119.808E-06    -53.3264E-06         1.00040     19.0541E-06     153.692E-06     396.787E-06
             727              0.              0.              0.              0.              0.              0.              0.              0.     762.122E-06     74.3840E-06    -123.697E-06     748.328E-06     99.9941E-06     99.9941E-06    -49.3125E-06    -49.6817E-06    -49.5182E-06    -49.4757E-06     99.9938E-06     18.4171E-09    -16.8076E-09     205.118E-09     99.9941E-06     99.9941E-06    -49.3125E-06    -49.6817E-06    -49.5182E-06    -49.4757E-06     99.9938E-06     18.4171E-09    -16.8076E-09     205.118E-09     999.944E-03     999.929E-03     999.929E-03     1.22271E-03    -1.24701E-03         1.00118    -333.302E-03     999.937E-03    -152.924E-06     130.833E-06     999.927E-03     61.5958E-06    -56.2128E-06     686.014E-06
             728              0.              0.              0.              0.              0.              0.              0.              0.     755.530E-06     74.2948E-06    -74.2948E-06     748.189E-06     99.9539E-06     99.9539E-06    -49.3875E-06    -49.5655E-06    -49.4765E-06    -49.4765E-06     99.9537E-06     94.5812E-09     30.3695E-09    -30.3695E-09     99.9539E-06     99.9539E-06    -49.3875E-06    -49.5655E-06    -49.4765E-06    -49.4765E-06     99.9537E-06     94.5812E-09     30.3695E-09    -30.3695E-09     999.535E-03     999.951E-03     999.951E-03     1.01198E-03    -178.778E-06         1.00013    -333.595E-03     999.533E-03     416.990E-06     416.990E-06     999.950E-03     316.325E-06     101.570E-06    -101.570E-06
             729              0.              0.              0.              0.              0.              0.              0.              0.     752.419E-06     74.2894E-06    -24.6487E-06     748.337E-06     99.9603E-06     99.9603E-06    -49.3891E-06    -49.5712E-06    -49.4894E-06    -49.4708E-06     99.9602E-06    -22.6900E-09     37.2875E-09    -3.09375E-09     99.9603E-06     99.9603E-06    -49.3891E-06    -49.5712E-06    -49.4894E-06    -49.4708E-06     99.9602E-06    -22.6900E-09     37.2875E-09    -3.09375E-09     999.603E-03     999.743E-03     999.743E-03     749.888E-06    -468.323E-06         1.00021    -333.341E-03     999.600E-03     79.1995E-06     203.388E-06     999.741E-03    -75.8864E-06     124.707E-06    -10.3470E-06
             730              0.              0.              0.              0.              0.              0.              0.              0.     752.419E-06     74.2894E-06     24.6487E-06     748.337E-06     99.9603E-06     99.9603E-06    -49.3891E-06    -49.5712E-06    -49.4894E-06    -49.4708E-06     99.9602E-06     22.6900E-09     37.2875E-09     3.09375E-09     99.9603E-06     99.9603E-06    -49.3891E-06    -49.5712E-06    -49.4894E-06    -49.4708E-06     99.9602E-06     22.6900E-09     37.2875E-09     3.09375E-09     999.603E-03     999.743E-03     999.743E-03     749.888E-06    -468.323E-06         1.00021    -333.341E-03     999.600E-03     79.1995E-06     203.388E-06     999.741E-03     75.8864E-06     124.707E-06     10.3470E-06
             731              0.              0.              0.              0.              0.              0.              0.              0.     755.530E-06     74.2948E-06     74.2948E-06     748.189E-06     99.9539E-06     99.9539E-06    -49.3875E-06    -49.5655E-06    -49.4765E-06    -49.4765E-06     99.9537E-06    -94.5812E-09     30.3695E-09     30.3695E-09     99.9539E-06     99.9539E-06    -49.3875E-06    -49.5655E-06    -49.4765E-06    -49.4765E-06     99.9537E-06    -94.5812E-09     30.3695E-09     30.3695E-09     999.535E-03     999.951E-03     999.951E-03     1.01198E-03    -178.778E-06         1.00013    -333.595E-03     999.533E-03     416.990E-06     416.990E-06     999.950E-03    -316.325E-06     101.570E-06     101.570E-06
             732              0.              0.              0.              0.              0.              0.              0.              0.     762.122E-06     74.3840E-06     123.697E-06     748.328E-06     99.9941E-06     99.9941E-06    -49.3125E-06    -49.6817E-06    -49.5182E-06    -49.4757E-06     99.9938E-06    -18.4171E-09    -16.8076E-09    -205.118E-09     99.9941E-06     99.9941E-06    -49.3125E-06    -49.6817E-06    -49.5182E-06    -49.4757E-06     99.9938E-06    -18.4171E-09    -16.8076E-09    -205.118E-09     999.944E-03     999.929E-03     999.929E-03     1.22271E-03    -1.24701E-03         1.00118    -333.302E-03     999.937E-03    -152.924E-06     130.833E-06     999.927E-03    -61.5958E-06    -56.2128E-06    -686.014E-06
             733              0.              0.              0.              0.              0.              0.              0.              0.     664.060E-06     74.0345E-06    -123.900E-06     648.185E-06     100.111E-06     100.111E-06    -49.2398E-06    -49.8705E-06    -49.5001E-06    -49.6090E-06     100.110E-06     51.4301E-09    -2.42841E-09    -401.795E-09     100.111E-06     100.111E-06    -49.2398E-06    -49.8705E-06    -49.5001E-06    -49.6090E-06     100.110E-06     51.4301E-09    -2.42841E-09    -401.795E-09         1.00112         1.00103         1.00103     2.02507E-03    -2.19322E-03         1.00322    -333.620E-03         1.00110     284.123E-06    -444.528E-06         1.00102     172.007E-06    -8.12182E-06    -1.34380E-03
             734              0.              0.              0.              0.              0.              0.              0.              0.     657.030E-06     74.1535E-06    -74.1535E-06     648.607E-06     100.093E-06     100.093E-06    -49.3719E-06    -49.7229E-06    -49.5471E-06    -49.5471E-06     100.092E-06    -67.7096E-09    -62.8265E-09     62.8265E-09     100.093E-06     100.093E-06    -49.3719E-06    -49.7229E-06    -49.5471E-06    -49.5471E-06     100.092E-06    -67.7096E-09    -62.8265E-09     62.8265E-09         1.00094         1.00007         1.00007     304.490E-06    -2.04310E-03         1.00211    -332.777E-03         1.00093    -867.054E-06    -867.054E-06         1.00007    -226.454E-06    -210.122E-06     210.122E-06
             735              0.              0.              0.              0.              0.              0.              0.              0.     653.152E-06     74.1022E-06    -24.9346E-06     648.456E-06     100.073E-06     100.073E-06    -49.3571E-06    -49.7177E-06    -49.5194E-06    -49.5548E-06     100.073E-06     67.5525E-09    -8.31331E-09     22.9844E-09     100.073E-06     100.073E-06    -49.3571E-06    -49.7177E-06    -49.5194E-06    -49.5548E-06     100.073E-06     67.5525E-09    -8.31331E-09     22.9844E-09         1.00074     999.981E-03     999.981E-03     447.044E-06    -1.96473E-03         1.00195    -332.821E-03         1.00073    -638.827E-06    -875.450E-06     999.977E-03     225.928E-06    -27.8038E-06     76.8708E-06
             736              0.              0.              0.              0.              0.              0.              0.              0.     653.152E-06     74.1022E-06     24.9346E-06     648.456E-06     100.073E-06     100.073E-06    -49.3571E-06    -49.7177E-06    -49.5194E-06    -49.5548E-06     100.073E-06    -67.5525E-09    -8.31331E-09    -22.9844E-09     100.073E-06     100.073E-06    -49.3571E-06    -49.7177E-06    -49.5194E-06    -49.5548E-06     100.073E-06    -67.5525E-09    -8.31331E-09    -22.9844E-09         1.00074     999.981E-03     999.981E-03     447.044E-06    -1.96473E-03         1.00195    -332.821E-03         1.00073    -638.827E-06    -875.450E-06     999.977E-03    -225.928E-06    -27.8038E-06    -76.8708E-06
             737              0.              0.              0.              0.              0.              0.              0.              0.     657.030E-06     74.1535E-06     74.1535E-06     648.607E-06     100.093E-06     100.093E-06    -49.3719E-06    -49.7229E-06    -49.5471E-06    -49.5471E-06     100.092E-06     67.7096E-09    -62.8265E-09    -62.8265E-09     100.093E-06     100.093E-06    -49.3719E-06    -49.7229E-06    -49.5471E-06    -49.5471E-06     100.092E-06     67.7096E-09    -62.8265E-09    -62.8265E-09         1.00094         1.00007         1.00007     304.490E-06    -2.04310E-03         1.00211    -332.777E-03         1.00093    -867.054E-06    -867.054E-06         1.00007     226.454E-06    -210.122E-06    -210.122E-06
             738              0.              0.              0.              0.              0.              0.              0.              0.     664.060E-06     74.0345E-06     123.900E-06     648.185E-06     100.111E-06     100.111E-06    -49.2398E-06    -49.8705E-06    -49.5001E-06    -49.6090E-06     100.110E-06    -51.4301E-09    -2.42841E-09     401.795E-09     100.111E-06     100.111E-06    -49.2398E-06    -49.8705E-06    -49.5001E-06    -49.6090E-06     100.110E-06    -51.4301E-09    -2.42841E-09     401.795E-09         1.00112         1.00103         1.00103     2.02507E-03    -2.19322E-03         1.00322    -333.620E-03         1.00110     284.123E-06    -444.528E-06         1.00102    -172.007E-06    -8.12182E-06     1.34380E-03
             739              0.              0.              0.              0.              0.              0.              0.              0.     567.135E-06     74.8806E-06    -123.738E-06     548.383E-06     99.8385E-06     99.8385E-06    -48.8785E-06    -49.9644E-06    -49.5751E-06    -49.2642E-06     99.8349E-06     20.0456E-09    -478.982E-09     952.004E-09     99.8385E-06     99.8385E-06    -48.8785E-06    -49.9644E-06    -49.5751E-06    -49.2642E-06     99.8349E-06     20.0456E-09    -478.982E-09     952.004E-09     998.415E-03     997.457E-03     997.457E-03     2.69495E-03    -4.56872E-03         1.00203    -331.861E-03     998.351E-03    -1.96486E-03     114.929E-06     997.433E-03     67.0421E-06    -1.60195E-03     3.18396E-03
             740              0.              0.              0.              0.              0.              0.              0.              0.     557.965E-06     74.6911E-06    -74.6911E-06     547.875E-06     99.8549E-06     99.8549E-06    -49.0805E-06    -49.7759E-06    -49.4276E-06    -49.4276E-06     99.8537E-06     259.381E-09    -341.341E-09     341.341E-09     99.8549E-06     99.8549E-06    -49.0805E-06    -49.7759E-06    -49.4276E-06    -49.4276E-06     99.8537E-06     259.381E-09    -341.341E-09     341.341E-09     998.561E-03     998.531E-03     998.531E-03     2.30768E-03    -2.34341E-03         1.00087    -332.832E-03     998.526E-03    -13.7387E-06    -13.7387E-06     998.523E-03     867.497E-06    -1.14161E-03     1.14161E-03
             741              0.              0.              0.              0.              0.              0.              0.              0.     553.770E-06     74.6213E-06    -24.5429E-06     548.170E-06     100.156E-06     100.156E-06    -49.2705E-06    -49.8891E-06    -49.5250E-06    -49.6329E-06     100.154E-06     16.1963E-09    -308.602E-09     250.169E-09     100.156E-06     100.156E-06    -49.2705E-06    -49.8891E-06    -49.5250E-06    -49.6329E-06     100.154E-06     16.1963E-09    -308.602E-09     250.169E-09         1.00159     999.825E-03     999.825E-03     316.859E-06    -3.82092E-03         1.00365    -332.107E-03         1.00156    -1.38557E-03    -2.10736E-03     999.814E-03     54.1683E-06    -1.03211E-03     836.686E-06
             742              0.              0.              0.              0.              0.              0.              0.              0.     553.770E-06     74.6213E-06     24.5429E-06     548.170E-06     100.156E-06     100.156E-06    -49.2705E-06    -49.8891E-06    -49.5250E-06    -49.6329E-06     100.154E-06    -16.1963E-09    -308.602E-09    -250.169E-09     100.156E-06     100.156E-06    -49.2705E-06    -49.8891E-06    -49.5250E-06    -49.6329E-06     100.154E-06    -16.1963E-09    -308.602E-09    -250.169E-09         1.00159     999.825E-03     999.825E-03     316.859E-06    -3.82092E-03         1.00365    -332.107E-03         1.00156    -1.38557E-03    -2.10736E-03     999.814E-03    -54.1683E-06    -1.03211E-03    -836.686E-06
             743              0.              0.              0.              0.              0.              0.              0.              0.     557.965E-06     74.6911E-06     74.6911E-06     547.875E-06     99.8549E-06     99.8549E-06    -49.0805E-06    -49.7759E-06    -49.4276E-06    -49.4276E-06     99.8537E-06    -259.381E-09    -341.341E-09    -341.341E-09     99.8549E-06     99.8549E-06    -49.0805E-06    -49.7759E-06    -49.4276E-06    -49.4276E-06     99.8537E-06    -259.381E-09    -341.341E-09    -341.341E-09     998.561E-03     998.531E-03     998.531E-03     2.30768E-03    -2.34341E-03         1.00087    -332.832E-03     998.526E-03    -13.7387E-06    -13.7387E-06     998.523E-03    -867.497E-06    -1.14161E-03    -1.14161E-03
             744              0.              0.              0.              0.              0.              0.              0.              0.     567.135E-06     74.8806E-06     123.738E-06     548.383E-06     99.8385E-06     99.8385E-06    -48.8785E-06    -49.9644E-06    -49.5751E-06    -49.2642E-06     99.8349E-06    -20.0456E-09    -478.982E-09    -952.004E-09     99.8385E-06     99.8385E-06    -48.8785E-06    -49.9644E-06    -49.5751E-06    -49.2642E-06     99.8349E-06    -20.0456E-09    -478.982E-09    -952.004E-09     998.415E-03     997.457E-03     997.457E-03     2.69495E-03    -4.56872E-03         1.00203    -331.861E-03     998.351E-03    -1.96486E-03     114.929E-06     997.433E-03    -67.0421E-06    -1.60195E-03    -3.18396E-03
             745              0.              0.              0.              0.              0.              0.              0.              0.     471.055E-06     74.4518E-06    -124.789E-06     448.082E-06     99.7571E-06     99.7571E-06    -48.6861E-06    -50.0793E-06    -49.2781E-06    -49.4742E-06     99.7441E-06     216.472E-09    -1.29110E-06    -973.573E-09     99.7571E-06     99.7571E-06    -48.6861E-06    -50.0793E-06    -49.2781E-06    -49.4742E-06     99.7441E-06     216.472E-09    -1.29110E-06    -973.573E-09     997.623E-03     995.656E-03     995.656E-03     2.72515E-03    -6.59372E-03         1.00225    -330.596E-03     997.525E-03    -1.23495E-03    -2.54633E-03     995.569E-03     723.988E-06    -4.31805E-03    -3.25610E-03
             746              0.              0.              0.              0.              0.              0.              0.              0.     461.470E-06     74.6235E-06    -74.6235E-06     449.240E-06     100.279E-06     100.279E-06    -49.2801E-06    -50.0143E-06    -49.6397E-06    -49.6397E-06     100.264E-06    -155.104E-09    -1.23140E-06     1.23140E-06     100.279E-06     100.279E-06    -49.2801E-06    -50.0143E-06    -49.6397E-06    -49.6397E-06     100.264E-06    -155.104E-09    -1.23140E-06     1.23140E-06         1.00287     996.906E-03     996.906E-03    -3.49175E-03    -8.40299E-03         1.00531    -328.337E-03         1.00283    -5.89688E-03    -5.89688E-03     996.805E-03    -518.741E-06    -4.11838E-03     4.11838E-03
             747              0.              0.              0.              0.              0.              0.              0.              0.     455.012E-06     74.6069E-06    -25.7297E-06     448.115E-06     101.041E-06     101.041E-06    -49.3815E-06    -50.6719E-06    -49.7351E-06    -50.3063E-06     101.029E-06     32.6045E-09    -1.40289E-06     710.070E-09     101.041E-06     101.041E-06    -49.3815E-06    -50.6719E-06    -49.7351E-06    -50.3063E-06     101.029E-06     32.6045E-09    -1.40289E-06     710.070E-09         1.01053         1.00288         1.00288    -3.29314E-03    -11.9246E-03         1.01480    -329.220E-03         1.01041    -5.65799E-03    -9.47924E-03         1.00280     109.045E-06    -4.69195E-03     2.37481E-03
             748              0.              0.              0.              0.              0.              0.              0.              0.     455.012E-06     74.6069E-06     25.7297E-06     448.115E-06     101.041E-06     101.041E-06    -49.3815E-06    -50.6719E-06    -49.7351E-06    -50.3063E-06     101.029E-06    -32.6045E-09    -1.40289E-06    -710.070E-09     101.041E-06     101.041E-06    -49.3815E-06    -50.6719E-06    -49.7351E-06    -50.3063E-06     101.029E-06    -32.6045E-09    -1.40289E-06    -710.070E-09         1.01053         1.00288         1.00288    -3.29314E-03    -11.9246E-03         1.01480    -329.220E-03         1.01041    -5.65799E-03    -9.47924E-03         1.00280    -109.045E-06    -4.69195E-03    -2.37481E-03
             749              0.              0.              0.              0.              0.              0.              0.              0.     461.470E-06     74.6235E-06     74.6235E-06     449.240E-06     100.279E-06     100.279E-06    -49.2801E-06    -50.0143E-06    -49.6397E-06    -49.6397E-06     100.264E-06     155.104E-09    -1.23140E-06    -1.23140E-06     100.279E-06     100.279E-06    -49.2801E-06    -50.0143E-06    -49.6397E-06    -49.6397E-06     100.264E-06     155.104E-09    -1.23140E-06    -1.23140E-06         1.00287     996.906E-03     996.906E-03    -3.49175E-03    -8.40299E-03         1.00531    -328.337E-03         1.00283    -5.89688E-03    -5.89688E-03     996.805E-03     518.741E-06    -4.11838E-03    -4.11838E-03
             750              0.              0.              0.              0.              0.              0.              0.              0.     471.055E-06     74.4518E-06     124.789E-06     448.082E-06     99.7571E-06     99.7571E-06    -48.6861E-06    -50.0793E-06    -49.2781E-06    -49.4742E-06     99.7441E-06    -216.472E-09    -1.29110E-06     973.573E-09     99.7571E-06     99.7571E-06    -48.6861E-06    -50.0793E-06    -49.2781E-06    -49.4742E-06     99.7441E-06    -216.472E-09    -1.29110E-06     973.573E-09     997.623E-03     995.656E-03     995.656E-03     2.72515E-03    -6.59372E-03         1.00225    -330.596E-03     997.525E-03    -1.23495E-03    -2.54633E-03     995.569E-03    -723.988E-06    -4.31805E-03     3.25610E-03
             751              0.              0.              0.              0.              0.              0.              0.              0.     379.608E-06     77.4980E-06    -124.109E-06     350.276E-06     97.7504E-06     97.7504E-06    -46.4573E-06    -50.3353E-06    -49.2857E-06    -47.4371E-06     97.6806E-06    -698.686E-09    -3.51588E-06     4.37036E-06     97.7504E-06     97.7504E-06    -46.4573E-06    -50.3353E-06    -49.2857E-06    -47.4371E-06     97.6806E-06    -698.686E-09    -3.51588E-06     4.37036E-06     977.873E-03     970.983E-03     970.983E-03     6.38220E-03    -19.5572E-03     990.540E-03    -319.269E-03     976.964E-03    -12.5365E-03    -171.460E-06     970.516E-03    -2.33674E-03    -11.7588E-03     14.6166E-03
             752              0.              0.              0.              0.              0.              0.              0.              0.     363.885E-06     77.1875E-06    -77.1875E-06     347.126E-06     99.6177E-06     99.6177E-06    -47.8040E-06    -50.8371E-06    -49.2982E-06    -49.2982E-06     99.5729E-06    -17.0337E-09    -3.14911E-06     3.14911E-06     99.6177E-06     99.6177E-06    -47.8040E-06    -50.8371E-06    -49.2982E-06    -49.2982E-06     99.5729E-06    -17.0337E-09    -3.14911E-06     3.14911E-06     996.493E-03     989.673E-03     989.673E-03     3.57479E-03    -16.7135E-03         1.00639    -325.512E-03     995.742E-03    -6.41941E-03    -6.41941E-03     989.374E-03    -56.9689E-06    -10.5322E-03     10.5322E-03
             753              0.              0.              0.              0.              0.              0.              0.              0.     355.302E-06     77.5150E-06    -24.8379E-06     345.852E-06     102.012E-06     102.012E-06    -49.1095E-06    -51.9190E-06    -49.8895E-06    -51.0982E-06     101.972E-06    -138.906E-09    -3.84566E-06     1.90095E-06     102.012E-06     102.012E-06    -49.1095E-06    -51.9190E-06    -49.8895E-06    -51.0982E-06     101.972E-06    -138.906E-09    -3.84566E-06     1.90095E-06         1.02042         1.00812         1.00812    -2.72737E-03    -21.5198E-03         1.02964    -327.958E-03         1.01989    -7.94458E-03    -16.0293E-03         1.00785    -464.570E-06    -12.8617E-03     6.35769E-03
             754              0.              0.              0.              0.              0.              0.              0.              0.     355.302E-06     77.5150E-06     24.8379E-06     345.852E-06     102.012E-06     102.012E-06    -49.1095E-06    -51.9190E-06    -49.8895E-06    -51.0982E-06     101.972E-06     138.906E-09    -3.84566E-06    -1.90095E-06     102.012E-06     102.012E-06    -49.1095E-06    -51.9190E-06    -49.8895E-06    -51.0982E-06     101.972E-06     138.906E-09    -3.84566E-06    -1.90095E-06         1.02042         1.00812         1.00812    -2.72737E-03    -21.5198E-03         1.02964    -327.958E-03         1.01989    -7.94458E-03    -16.0293E-03         1.00785     464.570E-06    -12.8617E-03    -6.35769E-03
             755              0.              0.              0.              0.              0.              0.              0.              0.     363.885E-06     77.1875E-06     77.1875E-06     347.126E-06     99.6177E-06     99.6177E-06    -47.8040E-06    -50.8371E-06    -49.2982E-06    -49.2982E-06     99.5729E-06     17.0337E-09    -3.14911E-06    -3.14911E-06     99.6177E-06     99.6177E-06    -47.8040E-06    -50.8371E-06    -49.2982E-06    -49.2982E-06     99.5729E-06     17.0337E-09    -3.14911E-06    -3.14911E-06     996.493E-03     989.673E-03     989.673E-03     3.57479E-03    -16.7135E-03         1.00639    -325.512E-03     995.742E-03    -6.41941E-03    -6.41941E-03     989.374E-03     56.9689E-06    -10.5322E-03    -10.5322E-03
             756              0.              0.              0.              0.              0.              0.              0.              0.     379.608E-06     77.4980E-06     124.109E-06     350.276E-06     97.7504E-06     97.7504E-06    -46.4573E-06    -50.3353E-06    -49.2857E-06    -47.4371E-06     97.6806E-06     698.686E-09    -3.51588E-06    -4.37036E-06     97.7504E-06     97.7504E-06    -46.4573E-06    -50.3353E-06    -49.2857E-06    -47.4371E-06     97.6806E-06     698.686E-09    -3.51588E-06    -4.37036E-06     977.873E-03     970.983E-03     970.983E-03     6.38220E-03    -19.5572E-03     990.540E-03    -319.269E-03     976.964E-03    -12.5365E-03    -171.460E-06     970.516E-03     2.33674E-03    -11.7588E-03    -14.6166E-03
             757              0.              0.              0.              0.              0.              0.              0.              0.     292.117E-06     76.1449E-06    -127.229E-06     251.689E-06     95.9658E-06     95.9658E-06    -46.1501E-06    -48.8662E-06    -47.1727E-06    -47.6656E-06     95.7878E-06    -757.992E-09    -5.38974E-06    -3.02488E-06     95.9658E-06     95.9658E-06    -46.1501E-06    -48.8662E-06    -47.1727E-06    -47.6656E-06     95.7878E-06    -757.992E-09    -5.38974E-06    -3.02488E-06     959.839E-03     956.281E-03     956.281E-03     5.67271E-03    -12.4952E-03     968.776E-03    -316.486E-03     959.399E-03    -1.16746E-03    -4.46456E-03     955.090E-03    -2.53509E-03    -18.0259E-03    -10.1167E-03
             758              0.              0.              0.              0.              0.              0.              0.              0.     273.110E-06     76.4975E-06    -76.4975E-06     250.769E-06     100.096E-06     100.096E-06    -48.1800E-06    -50.9633E-06    -49.5096E-06    -49.5096E-06     99.9720E-06    -2.36957E-06    -5.00756E-06     5.00756E-06     100.096E-06     100.096E-06    -48.1800E-06    -50.9633E-06    -49.5096E-06    -49.5096E-06     99.9720E-06    -2.36957E-06    -5.00756E-06     5.00756E-06         1.00128     985.027E-03     985.027E-03    -6.78774E-03    -25.4052E-03         1.01043    -317.611E-03         1.00081    -15.6811E-03    -15.6811E-03     984.196E-03    -7.92497E-03    -16.7477E-03     16.7477E-03
             759              0.              0.              0.              0.              0.              0.              0.              0.     257.875E-06     78.5145E-06    -28.2578E-06     244.001E-06     104.434E-06     104.434E-06    -49.3299E-06    -54.1134E-06    -50.4556E-06    -52.7874E-06     104.234E-06    -1.60627E-06    -8.11394E-06     2.90619E-06     104.434E-06     104.434E-06    -49.3299E-06    -54.1134E-06    -50.4556E-06    -52.7874E-06     104.234E-06    -1.60627E-06    -8.11394E-06     2.90619E-06         1.04493         1.02668         1.02668    -1.83742E-03    -33.8341E-03         1.06052    -330.338E-03         1.04370    -9.36738E-03    -24.9649E-03         1.02535    -5.37214E-03    -27.1369E-03     9.71971E-03
             760              0.              0.              0.              0.              0.              0.              0.              0.     257.875E-06     78.5145E-06     28.2578E-06     244.001E-06     104.434E-06     104.434E-06    -49.3299E-06    -54.1134E-06    -50.4556E-06    -52.7874E-06     104.234E-06     1.60627E-06    -8.11394E-06    -2.90619E-06     104.434E-06     104.434E-06    -49.3299E-06    -54.1134E-06    -50.4556E-06    -52.7874E-06     104.234E-06     1.60627E-06    -8.11394E-06    -2.90619E-06         1.04493         1.02668         1.02668    -1.83742E-03    -33.8341E-03         1.06052    -330.338E-03         1.04370    -9.36738E-03    -24.9649E-03         1.02535     5.37214E-03    -27.1369E-03    -9.71971E-03
             761              0.              0.              0.              0.              0.              0.              0.              0.     273.110E-06     76.4975E-06     76.4975E-06     250.769E-06     100.096E-06     100.096E-06    -48.1800E-06    -50.9633E-06    -49.5096E-06    -49.5096E-06     99.9720E-06     2.36957E-06    -5.00756E-06    -5.00756E-06     100.096E-06     100.096E-06    -48.1800E-06    -50.9633E-06    -49.5096E-06    -49.5096E-06     99.9720E-06     2.36957E-06    -5.00756E-06    -5.00756E-06         1.00128     985.027E-03     985.027E-03    -6.78774E-03    -25.4052E-03         1.01043    -317.611E-03         1.00081    -15.6811E-03    -15.6811E-03     984.196E-03     7.92497E-03    -16.7477E-03    -16.7477E-03
             762              0.              0.              0.              0.              0.              0.              0.              0.     292.117E-06     76.1449E-06     127.229E-06     251.689E-06     95.9658E-06     95.9658E-06    -46.1501E-06    -48.8662E-06    -47.1727E-06    -47.6656E-06     95.7878E-06     757.992E-09    -5.38974E-06     3.02488E-06     95.9658E-06     95.9658E-06    -46.1501E-06    -48.8662E-06    -47.1727E-06    -47.6656E-06     95.7878E-06     757.992E-09    -5.38974E-06     3.02488E-06     959.839E-03     956.281E-03     956.281E-03     5.67271E-03    -12.4952E-03     968.776E-03    -316.486E-03     959.399E-03    -1.16746E-03    -4.46456E-03     955.090E-03     2.53509E-03    -18.0259E-03     10.1167E-03
             763              0.              0.              0.              0.              0.              0.              0.              0.     216.634E-06     79.0796E-06    -116.220E-06     164.832E-06     89.7273E-06     89.7273E-06    -37.8197E-06    -51.0472E-06    -47.3903E-06    -40.6521E-06     88.9028E-06    -6.75306E-06    -1.99279E-06     12.9398E-06     89.7273E-06     89.7273E-06    -37.8197E-06    -51.0472E-06    -47.3903E-06    -40.6521E-06     88.9028E-06    -6.75306E-06    -1.99279E-06     12.9398E-06     901.345E-03     885.073E-03     885.073E-03     31.9156E-03    -56.5624E-03     941.635E-03    -286.809E-03     889.359E-03    -32.1018E-03     12.9701E-03     879.558E-03    -22.5855E-03    -6.66485E-03     43.2769E-03
             764              0.              0.              0.              0.              0.              0.              0.              0.     185.185E-06     79.5148E-06    -79.5148E-06     147.134E-06     101.777E-06     101.777E-06    -44.2876E-06    -56.5023E-06    -49.9919E-06    -49.9919E-06     100.971E-06    -5.49334E-06    -2.30294E-06     2.30294E-06     101.777E-06     101.777E-06    -44.2876E-06    -56.5023E-06    -49.9919E-06    -49.9919E-06     100.971E-06    -5.49334E-06    -2.30294E-06     2.30294E-06         1.02132         1.00759         1.00759     30.5704E-03    -51.1331E-03         1.05872    -329.009E-03         1.01089    -7.58557E-03    -7.58557E-03         1.00220    -18.3724E-03    -7.70215E-03     7.70215E-03
             765              0.              0.              0.              0.              0.              0.              0.              0.     162.397E-06     84.5729E-06    -23.8820E-06     136.565E-06     102.976E-06     102.976E-06    -45.4956E-06    -56.3644E-06    -49.5594E-06    -51.7406E-06     102.416E-06    -2.77315E-06    -3.78451E-06    -663.198E-09     102.976E-06     102.976E-06    -45.4956E-06    -56.3644E-06    -49.5594E-06    -51.7406E-06     102.416E-06    -2.77315E-06    -3.78451E-06    -663.198E-09         1.03161         1.05817         1.05817     65.0483E-03    -7.65280E-03         1.06582    -371.854E-03         1.02515     37.8662E-03     23.2758E-03         1.05442    -9.27475E-03    -12.6572E-03    -2.21805E-03
             766              0.              0.              0.              0.              0.              0.              0.              0.     162.397E-06     84.5729E-06     23.8820E-06     136.565E-06     102.976E-06     102.976E-06    -45.4956E-06    -56.3644E-06    -49.5594E-06    -51.7406E-06     102.416E-06     2.77315E-06    -3.78451E-06     663.198E-09     102.976E-06     102.976E-06    -45.4956E-06    -56.3644E-06    -49.5594E-06    -51.7406E-06     102.416E-06     2.77315E-06    -3.78451E-06     663.198E-09         1.03161         1.05817         1.05817     65.0483E-03    -7.65280E-03         1.06582    -371.854E-03         1.02515     37.8662E-03     23.2758E-03         1.05442     9.27475E-03    -12.6572E-03     2.21805E-03
             767              0.              0.              0.              0.              0.              0.              0.              0.     185.185E-06     79.5148E-06     79.5148E-06     147.134E-06     101.777E-06     101.777E-06    -44.2876E-06    -56.5023E-06    -49.9919E-06    -49.9919E-06     100.971E-06     5.49334E-06    -2.30294E-06    -2.30294E-06     101.777E-06     101.777E-06    -44.2876E-06    -56.5023E-06    -49.9919E-06    -49.9919E-06     100.971E-06     5.49334E-06    -2.30294E-06    -2.30294E-06         1.02132         1.00759         1.00759     30.5704E-03    -51.1331E-03         1.05872    -329.009E-03         1.01089    -7.58557E-03    -7.58557E-03         1.00220     18.3724E-03    -7.70215E-03    -7.70215E-03
             768              0.              0.              0.              0.              0.              0.              0.              0.     216.634E-06     79.0796E-06     116.220E-06     164.832E-06     89.7273E-06     89.7273E-06    -37.8197E-06    -51.0472E-06    -47.3903E-06    -40.6521E-06     88.9028E-06     6.75306E-06    -1.99279E-06    -12.9398E-06     89.7273E-06     89.7273E-06    -37.8197E-06    -51.0472E-06    -47.3903E-06    -40.6521E-06     88.9028E-06     6.75306E-06    -1.99279E-06    -12.9398E-06     901.345E-03     885.073E-03     885.073E-03     31.9156E-03    -56.5624E-03     941.635E-03    -286.809E-03     889.359E-03    -32.1018E-03     12.9701E-03     879.558E-03     22.5855E-03    -6.66485E-03    -43.2769E-03
             769              0.              0.              0.              0.              0.              0.              0.              0.     144.719E-06     52.2767E-06    -117.712E-06     65.9898E-06     103.209E-06     103.209E-06    -39.4514E-06    -62.3625E-06    -38.1586E-06    -53.8691E-06     93.4226E-06    -4.25267E-06     26.1910E-06    -33.3020E-06     103.209E-06     103.209E-06    -39.4514E-06    -62.3625E-06    -38.1586E-06    -53.8691E-06     93.4226E-06    -4.25267E-06     26.1910E-06    -33.3020E-06         1.04266         1.15225         1.15225     197.995E-03     44.7433E-03         1.10750    -464.994E-03         1.00592     206.643E-03     101.556E-03         1.08678    -14.2230E-03     87.5955E-03    -111.378E-03
             770              0.              0.              0.              0.              0.              0.              0.              0.     85.3186E-06     52.8362E-06    -52.8362E-06     41.1818E-06     88.4505E-06     88.4505E-06    -36.1591E-06    -50.8013E-06    -40.9172E-06    -40.9172E-06     83.3245E-06    -4.52451E-06     26.3054E-06    -26.3054E-06     88.4505E-06     88.4505E-06    -36.1591E-06    -50.8013E-06    -40.9172E-06    -40.9172E-06     83.3245E-06    -4.52451E-06     26.3054E-06    -26.3054E-06     888.805E-03         1.08500         1.08500     251.487E-03     153.546E-03     931.450E-03    -496.676E-03     869.363E-03     219.660E-03     219.660E-03         1.05071    -15.1321E-03     87.9780E-03    -87.9780E-03
             771              0.              0.              0.              0.              0.              0.              0.              0.     70.8647E-06     56.8012E-06    -16.3623E-06     39.0858E-06     78.6004E-06     78.6004E-06    -28.0832E-06    -48.9114E-06    -45.5354E-06    -27.8702E-06     75.0114E-06    -2.57655E-06     29.3772E-06    -10.8930E-06     78.6004E-06     78.6004E-06    -28.0832E-06    -48.9114E-06    -45.5354E-06    -27.8702E-06     75.0114E-06    -2.57655E-06     29.3772E-06    -10.8930E-06     795.706E-03         1.05743         1.05743     343.830E-03     204.511E-03     852.922E-03    -535.258E-03     756.061E-03     227.093E-03     345.255E-03         1.03343    -8.61723E-03     98.2515E-03    -36.4315E-03
             772              0.              0.              0.              0.              0.              0.              0.              0.     70.8647E-06     56.8012E-06     16.3623E-06     39.0858E-06     78.6004E-06     78.6004E-06    -28.0832E-06    -48.9114E-06    -45.5354E-06    -27.8702E-06     75.0114E-06     2.57655E-06     29.3772E-06     10.8930E-06     78.6004E-06     78.6004E-06    -28.0832E-06    -48.9114E-06    -45.5354E-06    -27.8702E-06     75.0114E-06     2.57655E-06     29.3772E-06     10.8930E-06     795.706E-03         1.05743         1.05743     343.830E-03     204.511E-03     852.922E-03    -535.258E-03     756.061E-03     227.093E-03     345.255E-03         1.03343     8.61723E-03     98.2515E-03     36.4315E-03
             773              0.              0.              0.              0.              0.              0.              0.              0.     85.3186E-06     52.8362E-06     52.8362E-06     41.1818E-06     88.4505E-06     88.4505E-06    -36.1591E-06    -50.8013E-06    -40.9172E-06    -40.9172E-06     83.3245E-06     4.52451E-06     26.3054E-06     26.3054E-06     88.4505E-06     88.4505E-06    -36.1591E-06    -50.8013E-06    -40.9172E-06    -40.9172E-06     83.3245E-06     4.52451E-06     26.3054E-06     26.3054E-06     888.805E-03         1.08500         1.08500     251.487E-03     153.546E-03     931.450E-03    -496.676E-03     869.363E-03     219.660E-03     219.660E-03         1.05071     15.1321E-03     87.9780E-03     87.9780E-03
             774              0.              0.              0.              0.              0.              0.              0.              0.     144.719E-06     52.2767E-06     117.712E-06     65.9898E-06     103.209E-06     103.209E-06    -39.4514E-06    -62.3625E-06    -38.1586E-06    -53.8691E-06     93.4226E-06     4.25267E-06     26.1910E-06     33.3020E-06     103.209E-06     103.209E-06    -39.4514E-06    -62.3625E-06    -38.1586E-06    -53.8691E-06     93.4226E-06     4.25267E-06     26.1910E-06     33.3020E-06         1.04266         1.15225         1.15225     197.995E-03     44.7433E-03         1.10750    -464.994E-03         1.00592     206.643E-03     101.556E-03         1.08678     14.2230E-03     87.5955E-03     111.378E-03
             775     750.615E-03    -84.5540E-03     388.760E-03    -636.506E-03     750.615E-03    -84.5540E-03     388.760E-03    -636.506E-03              0.     84.5540E-39    -388.760E-39     636.506E-39     84.0405E-06     84.0405E-06    -21.3139E-06    -60.6786E-06    -21.3139E-06    -21.3139E-06     44.6758E-06     28.9315E-21     52.2767E-06    -117.712E-06     84.0405E-06     84.0405E-06    -21.3139E-06    -60.6786E-06    -21.3139E-06    -21.3139E-06     44.6758E-06     28.9315E-21     52.2767E-06    -117.712E-06     866.895E-03         1.24024         1.24024     535.527E-03     272.218E-03     968.021E-03    -682.661E-03     768.898E-03     535.527E-03     535.527E-03     976.930E-03     95.5724E-18     174.839E-03    -393.686E-03
             776     861.742E-03    -167.883E-03     167.883E-03    -828.390E-03     861.742E-03    -167.883E-03     167.883E-03    -828.390E-03              0.     167.883E-39    -167.883E-39     828.390E-39     50.1647E-06     50.1647E-06    -13.0855E-06    -35.1539E-06    -13.0855E-06    -13.0855E-06     28.0963E-06    -6.46524E-21     52.8362E-06    -52.8362E-06     50.1647E-06     50.1647E-06    -13.0855E-06    -35.1539E-06    -13.0855E-06    -13.0855E-06     28.0963E-06    -6.46524E-21     52.8362E-06    -52.8362E-06     513.067E-03     973.025E-03     973.025E-03     549.947E-03     402.332E-03     570.693E-03    -641.768E-03     461.541E-03     549.947E-03     549.947E-03     825.410E-03    -21.1419E-18     176.710E-03    -176.710E-03
             777     844.425E-03    -176.806E-03     117.418E-03    -817.317E-03     844.425E-03    -176.806E-03     117.418E-03    -817.317E-03              0.     176.806E-39    -117.418E-39     817.317E-39     42.6046E-06     42.6046E-06    -12.3706E-06    -28.2601E-06    -12.3706E-06    -12.3706E-06     26.7152E-06     7.81686E-21     56.8012E-06    -16.3623E-06     42.6046E-06     42.6046E-06    -12.3706E-06    -28.2601E-06    -12.3706E-06    -12.3706E-06     26.7152E-06     7.81686E-21     56.8012E-06    -16.3623E-06     430.817E-03     938.554E-03     938.554E-03     570.827E-03     464.543E-03     474.011E-03    -657.975E-03     399.691E-03     570.827E-03     570.827E-03     832.270E-03     26.0446E-18     189.971E-03    -54.7233E-03
             778     844.425E-03    -176.806E-03    -117.418E-03    -817.317E-03     844.425E-03    -176.806E-03    -117.418E-03    -817.317E-03              0.     176.806E-39     117.418E-39     817.317E-39     42.6046E-06     42.6046E-06    -12.3706E-06    -28.2601E-06    -12.3706E-06    -12.3706E-06     26.7152E-06    -3.89437E-21     56.8012E-06     16.3623E-06     42.6046E-06     42.6046E-06    -12.3706E-06    -28.2601E-06    -12.3706E-06    -12.3706E-06     26.7152E-06    -3.89437E-21     56.8012E-06     16.3623E-06     430.817E-03     938.554E-03     938.554E-03     570.827E-03     464.543E-03     474.011E-03    -657.975E-03     399.691E-03     570.827E-03     570.827E-03     832.270E-03    -13.0646E-18     189.971E-03     54.7233E-03
             779     861.742E-03    -167.883E-03    -167.883E-03    -828.390E-03     861.742E-03    -167.883E-03    -167.883E-03    -828.390E-03              0.     167.883E-39     167.883E-39     828.390E-39     50.1647E-06     50.1647E-06    -13.0855E-06    -35.1539E-06    -13.0855E-06    -13.0855E-06     28.0963E-06    -3.09035E-21     52.8362E-06     52.8362E-06     50.1647E-06     50.1647E-06    -13.0855E-06    -35.1539E-06    -13.0855E-06    -13.0855E-06     28.0963E-06    -3.09035E-21     52.8362E-06     52.8362E-06     513.067E-03     973.025E-03     973.025E-03     549.947E-03     402.332E-03     570.693E-03    -641.768E-03     461.541E-03     549.947E-03     549.947E-03     825.410E-03    -9.89334E-18     176.710E-03     176.710E-03
             780     750.615E-03    -84.5540E-03    -388.760E-03    -636.506E-03     750.615E-03    -84.5540E-03    -388.760E-03    -636.506E-03              0.     84.5540E-39     388.760E-39     636.506E-39     84.0405E-06     84.0405E-06    -21.3139E-06    -60.6786E-06    -21.3139E-06    -21.3139E-06     44.6758E-06    -4.23516E-21     52.2767E-06     117.712E-06     84.0405E-06     84.0405E-06    -21.3139E-06    -60.6786E-06    -21.3139E-06    -21.3139E-06     44.6758E-06    -4.23516E-21     52.2767E-06     117.712E-06     866.895E-03         1.24024         1.24024     535.527E-03     272.218E-03     968.021E-03    -682.661E-03     768.898E-03     535.527E-03     535.527E-03     976.930E-03    -14.5283E-18     174.839E-03     393.686E-03
             781              0.              0.              0.              0.              0.              0.              0.              0.     2.45459E-03     123.750E-06    -123.750E-06     2.44834E-03     100.000E-06     100.000E-06    -49.4999E-06    -49.5002E-06    -49.5000E-06    -49.5000E-06     100.000E-06     259.462E-12     262.117E-12    -262.117E-12     100.000E-06     100.000E-06    -49.4999E-06    -49.5002E-06    -49.5000E-06    -49.5000E-06     100.000E-06     259.462E-12     262.117E-12    -262.117E-12         1.00000         1.00000         1.00000     906.699E-09    -828.788E-09         1.00000    -333.334E-03         1.00000     38.9565E-09     38.9564E-09         1.00000     867.765E-09     876.644E-09    -876.644E-09
             782              0.              0.              0.              0.              0.              0.              0.              0.     2.45259E-03     123.750E-06    -74.2499E-06     2.44834E-03     100.000E-06     100.000E-06    -49.4999E-06    -49.5001E-06    -49.5000E-06    -49.5000E-06     100.000E-06    -56.1986E-12    -57.9965E-12     171.431E-12     100.000E-06     100.000E-06    -49.4999E-06    -49.5001E-06    -49.5000E-06    -49.5000E-06     100.000E-06    -56.1986E-12    -57.9965E-12     171.431E-12         1.00000              1.              1.     657.234E-09    -764.266E-09         1.00000    -333.333E-03         1.00000     116.972E-09    -224.003E-09              1.    -187.955E-09    -193.968E-09     573.349E-09
             783              0.              0.              0.              0.              0.              0.              0.              0.     2.45159E-03     123.750E-06    -24.7501E-06     2.44834E-03    100.0000E-06    100.0000E-06    -49.4999E-06    -49.5001E-06    -49.5000E-06    -49.5000E-06    100.0000E-06     84.5038E-12     37.8967E-12    -180.496E-12    100.0000E-06    100.0000E-06    -49.4999E-06    -49.5001E-06    -49.5000E-06    -49.5000E-06    100.0000E-06     84.5038E-12     37.8967E-12    -180.496E-12              1.              1.              1.     693.551E-09    -610.193E-09         1.00000    -333.333E-03              1.    -37.4175E-09     120.777E-09              1.     282.621E-09     126.745E-09    -603.666E-09
             784              0.              0.              0.              0.              0.              0.              0.              0.     2.45159E-03     123.750E-06     24.7501E-06     2.44834E-03    100.0000E-06    100.0000E-06    -49.4999E-06    -49.5001E-06    -49.5000E-06    -49.5000E-06    100.0000E-06    -84.5037E-12     37.8967E-12     180.496E-12    100.0000E-06    100.0000E-06    -49.4999E-06    -49.5001E-06    -49.5000E-06    -49.5000E-06    100.0000E-06    -84.5037E-12     37.8967E-12     180.496E-12              1.              1.              1.     693.552E-09    -610.194E-09         1.00000    -333.333E-03              1.    -37.4176E-09     120.777E-09              1.    -282.621E-09     126.745E-09     603.666E-09
             785              0.              0.              0.              0.              0.              0.              0.              0.     2.45259E-03     123.750E-06     74.2499E-06     2.44834E-03     100.000E-06     100.000E-06    -49.4999E-06    -49.5001E-06    -49.5000E-06    -49.5000E-06     100.000E-06     56.1986E-12    -57.9965E-12    -171.432E-12     100.000E-06     100.000E-06    -49.4999E-06    -49.5001E-06    -49.5000E-06    -49.5000E-06     100.000E-06     56.1986E-12    -57.9965E-12    -171.432E-12         1.00000              1.              1.     657.243E-09    -764.275E-09         1.00000    -333.333E-03         1.00000     116.972E-09    -224.003E-09              1.     187.955E-09    -193.968E-09    -573.350E-09
             786              0.              0.              0.              0.              0.              0.              0.              0.     2.45459E-03     123.750E-06     123.750E-06     2.44834E-03     100.000E-06     100.000E-06    -49.4999E-06    -49.5002E-06    -49.5000E-06    -49.5000E-06     100.000E-06    -259.462E-12     262.117E-12     262.117E-12     100.000E-06     100.000E-06    -49.4999E-06    -49.5002E-06    -49.5000E-06    -49.5000E-06     100.000E-06    -259.462E-12     262.117E-12     262.117E-12         1.00000         1.00000         1.00000     906.709E-09    -828.797E-09         1.00000    -333.334E-03         1.00000     38.9564E-09     38.9564E-09         1.00000    -867.765E-09     876.644E-09     876.644E-09
             787              0.              0.              0.              0.              0.              0.              0.              0.     2.35485E-03     123.750E-06    -123.750E-06     2.34834E-03     99.9999E-06     99.9999E-06    -49.4998E-06    -49.5001E-06    -49.5000E-06    -49.5000E-06     99.9999E-06    -297.234E-12    -141.554E-12     141.554E-12     99.9999E-06     99.9999E-06    -49.4998E-06    -49.5001E-06    -49.5000E-06    -49.5000E-06     99.9999E-06    -297.234E-12    -141.554E-12     141.554E-12     999.999E-03     999.999E-03     999.999E-03     1.03443E-06    -953.759E-09         1.00000    -333.333E-03     999.999E-03     40.3389E-09     40.3389E-09     999.999E-03    -994.093E-09    -473.424E-09     473.424E-09
             788              0.              0.              0.              0.              0.              0.              0.              0.     2.35277E-03     123.750E-06    -74.2501E-06     2.34834E-03    100.0000E-06    100.0000E-06    -49.4999E-06    -49.5001E-06    -49.5000E-06    -49.5000E-06    100.0000E-06     62.7388E-12     28.3245E-12     15.7553E-12    100.0000E-06    100.0000E-06    -49.4999E-06    -49.5001E-06    -49.5000E-06    -49.5000E-06    100.0000E-06     62.7388E-12     28.3245E-12     15.7553E-12              1.              1.              1.     842.803E-09    -777.844E-09         1.00000    -333.333E-03              1.    -157.619E-09     222.579E-09              1.     209.829E-09     94.7308E-09     52.6934E-09
             789              0.              0.              0.              0.              0.              0.              0.              0.     2.35173E-03     123.750E-06    -24.7499E-06     2.34834E-03    100.0000E-06    100.0000E-06    -49.4999E-06    -49.5001E-06    -49.5000E-06    -49.5000E-06    100.0000E-06    -95.2928E-12    -22.0411E-12     4.44772E-12    100.0000E-06    100.0000E-06    -49.4999E-06    -49.5001E-06    -49.5000E-06    -49.5000E-06    100.0000E-06    -95.2928E-12    -22.0411E-12     4.44772E-12    1000.000E-03    1000.000E-03    1000.000E-03     717.276E-09    -775.723E-09         1.00000    -333.333E-03    1000.000E-03     62.2344E-09    -120.681E-09    1000.000E-03    -318.705E-09    -73.7161E-09     14.8753E-09
             790              0.              0.              0.              0.              0.              0.              0.              0.     2.35173E-03     123.750E-06     24.7499E-06     2.34834E-03    100.0000E-06    100.0000E-06    -49.4999E-06    -49.5001E-06    -49.5000E-06    -49.5000E-06    100.0000E-06     95.2928E-12    -22.0411E-12    -4.44771E-12    100.0000E-06    100.0000E-06    -49.4999E-06    -49.5001E-06    -49.5000E-06    -49.5000E-06    100.0000E-06     95.2928E-12    -22.0411E-12    -4.44771E-12    1000.000E-03    1000.000E-03    1000.000E-03     717.265E-09    -775.712E-09         1.00000    -333.333E-03    1000.000E-03     62.2344E-09    -120.681E-09    1000.000E-03     318.705E-09    -73.7162E-09    -14.8753E-09
             791              0.              0.              0.              0.              0.              0.              0.              0.     2.35277E-03     123.750E-06     74.2501E-06     2.34834E-03    100.0000E-06    100.0000E-06    -49.4999E-06    -49.5001E-06    -49.5000E-06    -49.5000E-06    100.0000E-06    -62.7388E-12     28.3245E-12    -15.7553E-12    100.0000E-06    100.0000E-06    -49.4999E-06    -49.5001E-06    -49.5000E-06    -49.5000E-06    100.0000E-06    -62.7388E-12     28.3245E-12    -15.7553E-12              1.              1.              1.     842.796E-09    -777.838E-09         1.00000    -333.333E-03              1.    -157.619E-09     222.579E-09              1.    -209.829E-09     94.7309E-09    -52.6933E-09
             792              0.              0.              0.              0.              0.              0.              0.              0.     2.35485E-03     123.750E-06     123.750E-06     2.34834E-03     99.9999E-06     99.9999E-06    -49.4998E-06    -49.5001E-06    -49.5000E-06    -49.5000E-06     99.9999E-06     297.234E-12    -141.554E-12    -141.554E-12     99.9999E-06     99.9999E-06    -49.4998E-06    -49.5001E-06    -49.5000E-06    -49.5000E-06     99.9999E-06     297.234E-12    -141.554E-12    -141.554E-12     999.999E-03     999.999E-03     999.999E-03     1.03442E-06    -953.746E-09         1.00000    -333.333E-03     999.999E-03     40.3389E-09     40.3390E-09     999.999E-03     994.093E-09    -473.424E-09    -473.424E-09
             793              0.              0.              0.              0.              0.              0.              0.              0.     2.25514E-03     123.750E-06    -123.750E-06     2.24834E-03     100.000E-06     100.000E-06    -49.4999E-06    -49.5003E-06    -49.5001E-06    -49.5001E-06     100.000E-06     403.933E-12     310.918E-12    -310.918E-12     100.000E-06     100.000E-06    -49.4999E-06    -49.5003E-06    -49.5001E-06    -49.5001E-06     100.000E-06     403.933E-12     310.918E-12    -310.918E-12         1.00000         1.00000         1.00000     1.32230E-06    -1.37961E-06         1.00000    -333.334E-03         1.00000    -28.6531E-09    -28.6526E-09         1.00000     1.35095E-06     1.03986E-06    -1.03986E-06
             794              0.              0.              0.              0.              0.              0.              0.              0.     2.25297E-03     123.750E-06    -74.2499E-06     2.24834E-03     100.000E-06     100.000E-06    -49.4998E-06    -49.5002E-06    -49.5000E-06    -49.5000E-06     100.000E-06    -79.3631E-12    -57.5161E-12    -34.2928E-12     100.000E-06     100.000E-06    -49.4998E-06    -49.5002E-06    -49.5000E-06    -49.5000E-06     100.000E-06    -79.3631E-12    -57.5161E-12    -34.2928E-12         1.00000              1.              1.     1.02246E-06    -1.14489E-06         1.00000    -333.333E-03         1.00000     191.260E-09    -313.696E-09              1.    -265.429E-09    -192.361E-09    -114.692E-09
             795              0.              0.              0.              0.              0.              0.              0.              0.     2.25188E-03     123.750E-06    -24.7501E-06     2.24834E-03     100.000E-06     100.000E-06    -49.4999E-06    -49.5001E-06    -49.5000E-06    -49.5000E-06     100.000E-06     122.823E-12     48.4715E-12    -5.63889E-12     100.000E-06     100.000E-06    -49.4999E-06    -49.5001E-06    -49.5000E-06    -49.5000E-06     100.000E-06     122.823E-12     48.4715E-12    -5.63889E-12              1.              1.              1.     1.03234E-06    -930.173E-09         1.00000    -333.333E-03              1.    -82.9328E-09     185.105E-09              1.     410.780E-09     162.112E-09    -18.8592E-09
             796              0.              0.              0.              0.              0.              0.              0.              0.     2.25188E-03     123.750E-06     24.7501E-06     2.24834E-03     100.000E-06     100.000E-06    -49.4999E-06    -49.5001E-06    -49.5000E-06    -49.5000E-06     100.000E-06    -122.823E-12     48.4715E-12     5.63891E-12     100.000E-06     100.000E-06    -49.4999E-06    -49.5001E-06    -49.5000E-06    -49.5000E-06     100.000E-06    -122.823E-12     48.4715E-12     5.63891E-12              1.              1.              1.     1.03234E-06    -930.167E-09         1.00000    -333.333E-03              1.    -82.9330E-09     185.105E-09              1.    -410.780E-09     162.112E-09     18.8592E-09
             797              0.              0.              0.              0.              0.              0.              0.              0.     2.25297E-03     123.750E-06     74.2499E-06     2.24834E-03     100.000E-06     100.000E-06    -49.4998E-06    -49.5002E-06    -49.5000E-06    -49.5000E-06     100.000E-06     79.3632E-12    -57.5161E-12     34.2928E-12     100.000E-06     100.000E-06    -49.4998E-06    -49.5002E-06    -49.5000E-06    -49.5000E-06     100.000E-06     79.3632E-12    -57.5161E-12     34.2928E-12         1.00000              1.              1.     1.02246E-06    -1.14489E-06         1.00000    -333.333E-03         1.00000     191.260E-09    -313.696E-09              1.     265.429E-09    -192.361E-09     114.692E-09
             798              0.              0.              0.              0.              0.              0.              0.              0.     2.25514E-03     123.750E-06     123.750E-06     2.24834E-03     100.000E-06     100.000E-06    -49.4999E-06    -49.5003E-06    -49.5001E-06    -49.5001E-06     100.000E-06    -403.933E-12     310.918E-12     310.917E-12     100.000E-06     100.000E-06    -49.4999E-06    -49.5003E-06    -49.5001E-06    -49.5001E-06     100.000E-06    -403.933E-12     310.918E-12     310.917E-12         1.00000         1.00000         1.00000     1.32229E-06    -1.37960E-06         1.00000    -333.334E-03         1.00000    -28.6528E-09    -28.6526E-09         1.00000    -1.35095E-06     1.03986E-06     1.03986E-06
             799              0.              0.              0.              0.              0.              0.              0.              0.     2.15546E-03     123.750E-06    -123.750E-06     2.14834E-03     99.9998E-06     99.9998E-06    -49.4996E-06    -49.5002E-06    -49.4999E-06    -49.4999E-06     99.9998E-06    -598.842E-12    -554.505E-12     554.505E-12     99.9998E-06     99.9998E-06    -49.4996E-06    -49.5002E-06    -49.4999E-06    -49.4999E-06     99.9998E-06    -598.842E-12    -554.505E-12     554.505E-12     999.998E-03     999.998E-03     999.998E-03     2.03457E-06    -1.97104E-06         1.00000    -333.333E-03     999.998E-03     31.7733E-09     31.7733E-09     999.998E-03    -2.00282E-06    -1.85453E-06     1.85453E-06
             800              0.              0.              0.              0.              0.              0.              0.              0.     2.15318E-03     123.750E-06    -74.2502E-06     2.14834E-03    100.0000E-06    100.0000E-06    -49.4998E-06    -49.5002E-06    -49.5000E-06    -49.4999E-06    100.0000E-06     112.924E-12     94.7104E-12     61.2385E-12    100.0000E-06    100.0000E-06    -49.4998E-06    -49.5002E-06    -49.5000E-06    -49.4999E-06    100.0000E-06     112.924E-12     94.7104E-12     61.2385E-12    1000.000E-03    1000.000E-03    1000.000E-03     1.68897E-06    -1.51573E-06         1.00000    -333.333E-03    1000.000E-03    -269.930E-09     443.164E-09    1000.000E-03     377.673E-09     316.757E-09     204.811E-09
             801              0.              0.              0.              0.              0.              0.              0.              0.     2.15204E-03     123.750E-06    -24.7498E-06     2.14834E-03    100.0000E-06    100.0000E-06    -49.4998E-06    -49.5002E-06    -49.5000E-06    -49.5000E-06    100.0000E-06    -176.350E-12    -89.4973E-12     10.9995E-12    100.0000E-06    100.0000E-06    -49.4998E-06    -49.5002E-06    -49.5000E-06    -49.5000E-06    100.0000E-06    -176.350E-12    -89.4973E-12     10.9995E-12              1.    1000.000E-03    1000.000E-03     1.35816E-06    -1.52488E-06         1.00000    -333.333E-03              1.     130.312E-09    -297.025E-09    1000.000E-03    -589.801E-09    -299.322E-09     36.7877E-09
             802              0.              0.              0.              0.              0.              0.              0.              0.     2.15204E-03     123.750E-06     24.7498E-06     2.14834E-03    100.0000E-06    100.0000E-06    -49.4998E-06    -49.5002E-06    -49.5000E-06    -49.5000E-06    100.0000E-06     176.350E-12    -89.4973E-12    -10.9995E-12    100.0000E-06    100.0000E-06    -49.4998E-06    -49.5002E-06    -49.5000E-06    -49.5000E-06    100.0000E-06     176.350E-12    -89.4973E-12    -10.9995E-12              1.    1000.000E-03    1000.000E-03     1.35816E-06    -1.52488E-06         1.00000    -333.333E-03              1.     130.312E-09    -297.025E-09    1000.000E-03     589.801E-09    -299.322E-09    -36.7877E-09
             803              0.              0.              0.              0.              0.              0.              0.              0.     2.15318E-03     123.750E-06     74.2502E-06     2.14834E-03    100.0000E-06    100.0000E-06    -49.4998E-06    -49.5002E-06    -49.5000E-06    -49.4999E-06    100.0000E-06    -112.924E-12     94.7104E-12    -61.2385E-12    100.0000E-06    100.0000E-06    -49.4998E-06    -49.5002E-06    -49.5000E-06    -49.4999E-06    100.0000E-06    -112.924E-12     94.7104E-12    -61.2385E-12    1000.000E-03    1000.000E-03    1000.000E-03     1.68897E-06    -1.51574E-06         1.00000    -333.333E-03    1000.000E-03    -269.930E-09     443.164E-09    1000.000E-03    -377.673E-09     316.757E-09    -204.811E-09
             804              0.              0.              0.              0.              0.              0.              0.              0.     2.15546E-03     123.750E-06     123.750E-06     2.14834E-03     99.9998E-06     99.9998E-06    -49.4996E-06    -49.5002E-06    -49.4999E-06    -49.4999E-06     99.9998E-06     598.842E-12    -554.505E-12    -554.505E-12     99.9998E-06     99.9998E-06    -49.4996E-06    -49.5002E-06    -49.4999E-06    -49.4999E-06     99.9998E-06     598.842E-12    -554.505E-12    -554.505E-12     999.998E-03     999.998E-03     999.998E-03     2.03457E-06    -1.97104E-06         1.00000    -333.333E-03     999.998E-03     31.7733E-09     31.7734E-09     999.998E-03     2.00282E-06    -1.85453E-06    -1.85453E-06
             805              0.              0.              0.              0.              0.              0.              0.              0.     2.05580E-03     123.750E-06    -123.750E-06     2.04834E-03     100.000E-06     100.000E-06    -49.4997E-06    -49.5006E-06    -49.5001E-06    -49.5001E-06     100.000E-06     930.763E-12     927.304E-12    -927.304E-12     100.000E-06     100.000E-06    -49.4997E-06    -49.5006E-06    -49.5001E-06    -49.5001E-06     100.000E-06     930.763E-12     927.304E-12    -927.304E-12         1.00000         1.00000         1.00000     3.07725E-06    -3.14862E-06         1.00001    -333.334E-03         1.00000    -35.6652E-09    -35.6647E-09         1.00000     3.11292E-06     3.10135E-06    -3.10135E-06
             806              0.              0.              0.              0.              0.              0.              0.              0.     2.05342E-03     123.750E-06    -74.2497E-06     2.04834E-03     100.000E-06     100.000E-06    -49.4996E-06    -49.5004E-06    -49.4999E-06    -49.5001E-06     100.000E-06    -168.976E-12    -141.313E-12    -102.125E-12     100.000E-06     100.000E-06    -49.4996E-06    -49.5004E-06    -49.4999E-06    -49.5001E-06     100.000E-06    -168.976E-12    -141.313E-12    -102.125E-12         1.00000         1.00000         1.00000     2.36248E-06    -2.61823E-06         1.00000    -333.333E-03         1.00000     394.550E-09    -650.290E-09         1.00000    -565.136E-09    -472.618E-09    -341.556E-09
             807              0.              0.              0.              0.              0.              0.              0.              0.     2.05222E-03     123.750E-06    -24.7503E-06     2.04834E-03    100.0000E-06    100.0000E-06    -49.4997E-06    -49.5003E-06    -49.5001E-06    -49.4999E-06    100.0000E-06     265.881E-12     156.667E-12    -19.4176E-12    100.0000E-06    100.0000E-06    -49.4997E-06    -49.5003E-06    -49.5001E-06    -49.4999E-06    100.0000E-06     265.881E-12     156.667E-12    -19.4176E-12              1.         1.00000         1.00000     2.37331E-06    -2.08438E-06         1.00000    -333.333E-03              1.    -214.580E-09     503.509E-09         1.00000     889.235E-09     523.970E-09    -64.9417E-09
             808              0.              0.              0.              0.              0.              0.              0.              0.     2.05222E-03     123.750E-06     24.7503E-06     2.04834E-03    100.0000E-06    100.0000E-06    -49.4997E-06    -49.5003E-06    -49.5001E-06    -49.4999E-06    100.0000E-06    -265.881E-12     156.667E-12     19.4176E-12    100.0000E-06    100.0000E-06    -49.4997E-06    -49.5003E-06    -49.5001E-06    -49.4999E-06    100.0000E-06    -265.881E-12     156.667E-12     19.4176E-12              1.         1.00000         1.00000     2.37331E-06    -2.08438E-06         1.00000    -333.333E-03              1.    -214.580E-09     503.510E-09         1.00000    -889.235E-09     523.970E-09     64.9417E-09
             809              0.              0.              0.              0.              0.              0.              0.              0.     2.05342E-03     123.750E-06     74.2497E-06     2.04834E-03     100.000E-06     100.000E-06    -49.4996E-06    -49.5004E-06    -49.4999E-06    -49.5001E-06     100.000E-06     168.976E-12    -141.313E-12     102.125E-12     100.000E-06     100.000E-06    -49.4996E-06    -49.5004E-06    -49.4999E-06    -49.5001E-06     100.000E-06     168.976E-12    -141.313E-12     102.125E-12         1.00000         1.00000         1.00000     2.36248E-06    -2.61823E-06         1.00000    -333.333E-03         1.00000     394.550E-09    -650.290E-09         1.00000     565.136E-09    -472.618E-09     341.557E-09
             810              0.              0.              0.              0.              0.              0.              0.              0.     2.05580E-03     123.750E-06     123.750E-06     2.04834E-03     100.000E-06     100.000E-06    -49.4997E-06    -49.5006E-06    -49.5001E-06    -49.5001E-06     100.000E-06    -930.763E-12     927.304E-12     927.304E-12     100.000E-06     100.000E-06    -49.4997E-06    -49.5006E-06    -49.5001E-06    -49.5001E-06     100.000E-06    -930.763E-12     927.304E-12     927.304E-12         1.00000         1.00000         1.00000     3.07725E-06    -3.14862E-06         1.00001    -333.334E-03         1.00000    -35.6652E-09    -35.6652E-09         1.00000    -3.11292E-06     3.10135E-06     3.10135E-06
             811              0.              0.              0.              0.              0.              0.              0.              0.     1.95618E-03     123.749E-06    -123.749E-06     1.94834E-03     99.9996E-06     99.9996E-06    -49.4991E-06    -49.5005E-06    -49.4998E-06    -49.4998E-06     99.9996E-06    -1.47682E-09    -1.51548E-09     1.51548E-09     99.9996E-06     99.9996E-06    -49.4991E-06    -49.5005E-06    -49.4998E-06    -49.4998E-06     99.9996E-06    -1.47682E-09    -1.51548E-09     1.51548E-09     999.996E-03     999.996E-03     999.996E-03     4.97206E-06    -4.90621E-06         1.00000    -333.332E-03     999.996E-03     32.9710E-09     32.9710E-09     999.996E-03    -4.93918E-06    -5.06849E-06     5.06849E-06
             812              0.              0.              0.              0.              0.              0.              0.              0.     1.95368E-03     123.750E-06    -74.2505E-06     1.94834E-03    100.0000E-06    100.0000E-06    -49.4994E-06    -49.5006E-06    -49.5001E-06    -49.4999E-06    100.0000E-06     257.536E-12     197.679E-12     165.422E-12    100.0000E-06    100.0000E-06    -49.4994E-06    -49.5006E-06    -49.5001E-06    -49.4999E-06    100.0000E-06     257.536E-12     197.679E-12     165.422E-12    1000.000E-03    1000.000E-03    1000.000E-03     4.14722E-06    -3.75729E-06         1.00000    -333.333E-03    1000.000E-03    -581.823E-09     971.771E-09    1000.000E-03     861.323E-09     661.132E-09     553.252E-09
             813              0.              0.              0.              0.              0.              0.              0.              0.     1.95242E-03     123.750E-06    -24.7495E-06     1.94834E-03    100.0000E-06    100.0000E-06    -49.4995E-06    -49.5005E-06    -49.4999E-06    -49.5001E-06    100.0000E-06    -408.204E-12    -269.384E-12     32.8402E-12    100.0000E-06    100.0000E-06    -49.4995E-06    -49.5005E-06    -49.4999E-06    -49.5001E-06    100.0000E-06    -408.204E-12    -269.384E-12     32.8402E-12              1.    1000.000E-03    1000.000E-03     3.27024E-06    -3.77041E-06         1.00000    -333.333E-03              1.     362.870E-09    -863.026E-09    1000.000E-03    -1.36523E-06    -900.951E-09     109.833E-09
             814              0.              0.              0.              0.              0.              0.              0.              0.     1.95242E-03     123.750E-06     24.7495E-06     1.94834E-03    100.0000E-06    100.0000E-06    -49.4995E-06    -49.5005E-06    -49.4999E-06    -49.5001E-06    100.0000E-06     408.204E-12    -269.384E-12    -32.8402E-12    100.0000E-06    100.0000E-06    -49.4995E-06    -49.5005E-06    -49.4999E-06    -49.5001E-06    100.0000E-06     408.204E-12    -269.384E-12    -32.8402E-12              1.    1000.000E-03    1000.000E-03     3.27024E-06    -3.77041E-06         1.00000    -333.333E-03              1.     362.870E-09    -863.025E-09    1000.000E-03     1.36523E-06    -900.951E-09    -109.833E-09
             815              0.              0.              0.              0.              0.              0.              0.              0.     1.95368E-03     123.750E-06     74.2505E-06     1.94834E-03    100.0000E-06    100.0000E-06    -49.4994E-06    -49.5006E-06    -49.5001E-06    -49.4999E-06    100.0000E-06    -257.536E-12     197.679E-12    -165.422E-12    100.0000E-06    100.0000E-06    -49.4994E-06    -49.5006E-06    -49.5001E-06    -49.4999E-06    100.0000E-06    -257.536E-12     197.679E-12    -165.422E-12    1000.000E-03    1000.000E-03    1000.000E-03     4.14722E-06    -3.75729E-06         1.00000    -333.333E-03    1000.000E-03    -581.823E-09     971.772E-09    1000.000E-03    -861.323E-09     661.132E-09    -553.252E-09
             816              0.              0.              0.              0.              0.              0.              0.              0.     1.95618E-03     123.749E-06     123.749E-06     1.94834E-03     99.9996E-06     99.9996E-06    -49.4991E-06    -49.5005E-06    -49.4998E-06    -49.4998E-06     99.9996E-06     1.47682E-09    -1.51548E-09    -1.51548E-09     99.9996E-06     99.9996E-06    -49.4991E-06    -49.5005E-06    -49.4998E-06    -49.4998E-06     99.9996E-06     1.47682E-09    -1.51548E-09    -1.51548E-09     999.996E-03     999.996E-03     999.996E-03     4.97206E-06    -4.90621E-06         1.00000    -333.332E-03     999.996E-03     32.9710E-09     32.9710E-09     999.996E-03     4.93918E-06    -5.06849E-06    -5.06849E-06
             817              0.              0.              0.              0.              0.              0.              0.              0.     1.85660E-03     123.751E-06    -123.751E-06     1.84834E-03     100.001E-06     100.001E-06    -49.4992E-06    -49.5015E-06    -49.5003E-06    -49.5003E-06     100.001E-06     2.36331E-09     2.45700E-09    -2.45700E-09     100.001E-06     100.001E-06    -49.4992E-06    -49.5015E-06    -49.5003E-06    -49.5003E-06     100.001E-06     2.36331E-09     2.45700E-09    -2.45700E-09         1.00001         1.00001         1.00001     7.89059E-06    -7.91774E-06         1.00001    -333.336E-03         1.00001    -13.4514E-09    -13.4514E-09         1.00001     7.90404E-06     8.21740E-06    -8.21740E-06
             818              0.              0.              0.              0.              0.              0.              0.              0.     1.85396E-03     123.750E-06    -74.2492E-06     1.84834E-03     100.000E-06     100.000E-06    -49.4991E-06    -49.5010E-06    -49.4999E-06    -49.5002E-06     100.000E-06    -393.540E-12    -257.414E-12    -267.309E-12     100.000E-06     100.000E-06    -49.4991E-06    -49.5010E-06    -49.4999E-06    -49.5002E-06     100.000E-06    -393.540E-12    -257.414E-12    -267.309E-12         1.00000         1.00000         1.00000     6.03354E-06    -6.62451E-06         1.00001    -333.333E-03         1.00000     854.968E-09    -1.44589E-06         1.00000    -1.31619E-06    -860.917E-09    -894.010E-09
             819              0.              0.              0.              0.              0.              0.              0.              0.     1.85264E-03     123.750E-06    -24.7508E-06     1.84834E-03     100.000E-06     100.000E-06    -49.4992E-06    -49.5008E-06    -49.5002E-06    -49.4998E-06     100.000E-06     629.953E-12     464.119E-12    -56.3504E-12     100.000E-06     100.000E-06    -49.4992E-06    -49.5008E-06    -49.5002E-06    -49.4998E-06     100.000E-06     629.953E-12     464.119E-12    -56.3504E-12              1.         1.00000         1.00000     6.04898E-06    -5.16301E-06         1.00001    -333.334E-03              1.    -621.273E-09     1.50727E-06         1.00000     2.10687E-06     1.55224E-06    -188.463E-09
             820              0.              0.              0.              0.              0.              0.              0.              0.     1.85264E-03     123.750E-06     24.7508E-06     1.84834E-03     100.000E-06     100.000E-06    -49.4992E-06    -49.5008E-06    -49.5002E-06    -49.4998E-06     100.000E-06    -629.953E-12     464.119E-12     56.3504E-12     100.000E-06     100.000E-06    -49.4992E-06    -49.5008E-06    -49.5002E-06    -49.4998E-06     100.000E-06    -629.953E-12     464.119E-12     56.3504E-12              1.         1.00000         1.00000     6.04898E-06    -5.16301E-06         1.00001    -333.334E-03              1.    -621.273E-09     1.50727E-06         1.00000    -2.10687E-06     1.55224E-06     188.463E-09
             821              0.              0.              0.              0.              0.              0.              0.              0.     1.85396E-03     123.750E-06     74.2492E-06     1.84834E-03     100.000E-06     100.000E-06    -49.4991E-06    -49.5010E-06    -49.4999E-06    -49.5002E-06     100.000E-06     393.540E-12    -257.414E-12     267.309E-12     100.000E-06     100.000E-06    -49.4991E-06    -49.5010E-06    -49.4999E-06    -49.5002E-06     100.000E-06     393.540E-12    -257.414E-12     267.309E-12         1.00000         1.00000         1.00000     6.03354E-06    -6.62451E-06         1.00001    -333.333E-03         1.00000     854.968E-09    -1.44589E-06         1.00000     1.31619E-06    -860.917E-09     894.010E-09
             822              0.              0.              0.              0.              0.              0.              0.              0.     1.85660E-03     123.751E-06     123.751E-06     1.84834E-03     100.001E-06     100.001E-06    -49.4992E-06    -49.5015E-06    -49.5003E-06    -49.5003E-06     100.001E-06    -2.36331E-09     2.45700E-09     2.45700E-09     100.001E-06     100.001E-06    -49.4992E-06    -49.5015E-06    -49.5003E-06    -49.5003E-06     100.001E-06    -2.36331E-09     2.45700E-09     2.45700E-09         1.00001         1.00001         1.00001     7.89059E-06    -7.91774E-06         1.00001    -333.336E-03         1.00001    -13.4514E-09    -13.4514E-09         1.00001    -7.90404E-06     8.21740E-06     8.21740E-06
             823              0.              0.              0.              0.              0.              0.              0.              0.     1.75708E-03     123.748E-06    -123.748E-06     1.74834E-03     99.9989E-06     99.9989E-06    -49.4976E-06    -49.5014E-06    -49.4995E-06    -49.4995E-06     99.9989E-06    -3.79239E-09    -3.97132E-09     3.97132E-09     99.9989E-06     99.9989E-06    -49.4976E-06    -49.5014E-06    -49.4995E-06    -49.4995E-06     99.9989E-06    -3.79239E-09    -3.97132E-09     3.97132E-09     999.989E-03     999.989E-03     999.989E-03     12.6283E-06    -12.7381E-06         1.00000    -333.330E-03     999.989E-03    -54.5615E-09    -54.5615E-09     999.989E-03    -12.6836E-06    -13.2820E-06     13.2820E-06
             824              0.              0.              0.              0.              0.              0.              0.              0.     1.75428E-03     123.750E-06    -74.2512E-06     1.74834E-03     99.9999E-06     99.9999E-06    -49.4984E-06    -49.5015E-06    -49.5002E-06    -49.4997E-06     99.9999E-06     601.505E-12     302.175E-12     429.256E-12     99.9999E-06     99.9999E-06    -49.4984E-06    -49.5015E-06    -49.5002E-06    -49.4997E-06     99.9999E-06     601.505E-12     302.175E-12     429.256E-12     999.999E-03     999.999E-03     999.999E-03     10.6156E-06    -9.72907E-06         1.00001    -333.333E-03     999.999E-03    -1.24231E-06     2.12895E-06     999.999E-03     2.01172E-06     1.01062E-06     1.43564E-06
             825              0.              0.              0.              0.              0.              0.              0.              0.     1.75289E-03     123.750E-06    -24.7488E-06     1.74834E-03    100.0000E-06    100.0000E-06    -49.4987E-06    -49.5013E-06    -49.4997E-06    -49.5003E-06    100.0000E-06    -969.415E-12    -799.001E-12     96.0787E-12    100.0000E-06    100.0000E-06    -49.4987E-06    -49.5013E-06    -49.4997E-06    -49.5003E-06    100.0000E-06    -969.415E-12    -799.001E-12     96.0787E-12              1.     999.999E-03     999.999E-03     8.16303E-06    -9.74918E-06         1.00001    -333.333E-03              1.     1.05997E-06    -2.64603E-06     999.999E-03    -3.24219E-06    -2.67224E-06     321.334E-09
             826              0.              0.              0.              0.              0.              0.              0.              0.     1.75289E-03     123.750E-06     24.7488E-06     1.74834E-03    100.0000E-06    100.0000E-06    -49.4987E-06    -49.5013E-06    -49.4997E-06    -49.5003E-06    100.0000E-06     969.415E-12    -799.001E-12    -96.0787E-12    100.0000E-06    100.0000E-06    -49.4987E-06    -49.5013E-06    -49.4997E-06    -49.5003E-06    100.0000E-06     969.415E-12    -799.001E-12    -96.0787E-12              1.     999.999E-03     999.999E-03     8.16303E-06    -9.74918E-06         1.00001    -333.333E-03              1.     1.05997E-06    -2.64603E-06     999.999E-03     3.24219E-06    -2.67224E-06    -321.334E-09
             827              0.              0.              0.              0.              0.              0.              0.              0.     1.75428E-03     123.750E-06     74.2512E-06     1.74834E-03     99.9999E-06     99.9999E-06    -49.4984E-06    -49.5015E-06    -49.5002E-06    -49.4997E-06     99.9999E-06    -601.505E-12     302.175E-12    -429.256E-12     99.9999E-06     99.9999E-06    -49.4984E-06    -49.5015E-06    -49.5002E-06    -49.4997E-06     99.9999E-06    -601.505E-12     302.175E-12    -429.256E-12     999.999E-03     999.999E-03     999.999E-03     10.6156E-06    -9.72907E-06         1.00001    -333.333E-03     999.999E-03    -1.24231E-06     2.12895E-06     999.999E-03    -2.01172E-06     1.01062E-06    -1.43564E-06
             828              0.              0.              0.              0.              0.              0.              0.              0.     1.75708E-03     123.748E-06     123.748E-06     1.74834E-03     99.9989E-06     99.9989E-06    -49.4976E-06    -49.5014E-06    -49.4995E-06    -49.4995E-06     99.9989E-06     3.79239E-09    -3.97132E-09    -3.97132E-09     99.9989E-06     99.9989E-06    -49.4976E-06    -49.5014E-06    -49.4995E-06    -49.4995E-06     99.9989E-06     3.79239E-09    -3.97132E-09    -3.97132E-09     999.989E-03     999.989E-03     999.989E-03     12.6283E-06    -12.7381E-06         1.00000    -333.330E-03     999.989E-03    -54.5615E-09    -54.5615E-09     999.989E-03     12.6836E-06    -13.2820E-06    -13.2820E-06
             829              0.              0.              0.              0.              0.              0.              0.              0.     1.65760E-03     123.753E-06    -123.753E-06     1.64834E-03     100.002E-06     100.002E-06    -49.4978E-06    -49.5039E-06    -49.5009E-06    -49.5009E-06     100.002E-06     6.09723E-09     6.40747E-09    -6.40747E-09     100.002E-06     100.002E-06    -49.4978E-06    -49.5039E-06    -49.5009E-06    -49.5009E-06     100.002E-06     6.09723E-09     6.40747E-09    -6.40747E-09         1.00002         1.00002         1.00002     20.5955E-06    -20.1904E-06         1.00004    -333.339E-03         1.00002     203.419E-09     203.419E-09         1.00002     20.3921E-06     21.4297E-06    -21.4297E-06
             830              0.              0.              0.              0.              0.              0.              0.              0.     1.65465E-03     123.750E-06    -74.2481E-06     1.64834E-03     100.000E-06     100.000E-06    -49.4977E-06    -49.5026E-06    -49.4998E-06    -49.5005E-06     100.000E-06    -908.855E-12    -287.457E-12    -675.018E-12     100.000E-06     100.000E-06    -49.4977E-06    -49.5026E-06    -49.4998E-06    -49.5005E-06     100.000E-06    -908.855E-12    -287.457E-12    -675.018E-12         1.00000         1.00000         1.00000     15.6906E-06    -17.0570E-06         1.00002    -333.333E-03         1.00000     1.74436E-06    -3.11042E-06         1.00000    -3.03965E-06    -961.395E-09    -2.25759E-06
             831              0.              0.              0.              0.              0.              0.              0.              0.     1.65316E-03     123.751E-06    -24.7520E-06     1.64834E-03     100.000E-06     100.000E-06    -49.4979E-06    -49.5021E-06    -49.5005E-06    -49.4995E-06     100.000E-06     1.48707E-09     1.38063E-09    -155.507E-12     100.000E-06     100.000E-06    -49.4979E-06    -49.5021E-06    -49.5005E-06    -49.4995E-06     100.000E-06     1.48707E-09     1.38063E-09    -155.507E-12         1.00000         1.00000         1.00000     15.6899E-06    -12.9706E-06         1.00001    -333.335E-03              1.    -1.86976E-06     4.58934E-06         1.00000     4.97347E-06     4.61749E-06    -520.091E-09
             832              0.              0.              0.              0.              0.              0.              0.              0.     1.65316E-03     123.751E-06     24.7520E-06     1.64834E-03     100.000E-06     100.000E-06    -49.4979E-06    -49.5021E-06    -49.5005E-06    -49.4995E-06     100.000E-06    -1.48707E-09     1.38063E-09     155.507E-12     100.000E-06     100.000E-06    -49.4979E-06    -49.5021E-06    -49.5005E-06    -49.4995E-06     100.000E-06    -1.48707E-09     1.38063E-09     155.507E-12         1.00000         1.00000         1.00000     15.6899E-06    -12.9706E-06         1.00001    -333.335E-03              1.    -1.86976E-06     4.58934E-06         1.00000    -4.97347E-06     4.61749E-06     520.091E-09
             833              0.              0.              0.              0.              0.              0.              0.              0.     1.65465E-03     123.750E-06     74.2481E-06     1.64834E-03     100.000E-06     100.000E-06    -49.4977E-06    -49.5026E-06    -49.4998E-06    -49.5005E-06     100.000E-06     908.855E-12    -287.457E-12     675.018E-12     100.000E-06     100.000E-06    -49.4977E-06    -49.5026E-06    -49.4998E-06    -49.5005E-06     100.000E-06     908.855E-12    -287.457E-12     675.018E-12         1.00000         1.00000         1.00000     15.6906E-06    -17.0570E-06         1.00002    -333.333E-03         1.00000     1.74436E-06    -3.11042E-06         1.00000     3.03965E-06    -961.395E-09     2.25759E-06
             834              0.              0.              0.              0.              0.              0.              0.              0.     1.65760E-03     123.753E-06     123.753E-06     1.64834E-03     100.002E-06     100.002E-06    -49.4978E-06    -49.5039E-06    -49.5009E-06    -49.5009E-06     100.002E-06    -6.09723E-09     6.40747E-09     6.40747E-09     100.002E-06     100.002E-06    -49.4978E-06    -49.5039E-06    -49.5009E-06    -49.5009E-06     100.002E-06    -6.09723E-09     6.40747E-09     6.40747E-09         1.00002         1.00002         1.00002     20.5955E-06    -20.1904E-06         1.00004    -333.339E-03         1.00002     203.419E-09     203.419E-09         1.00002    -20.3921E-06     21.4297E-06     21.4297E-06
             835              0.              0.              0.              0.              0.              0.              0.              0.     1.55820E-03     123.745E-06    -123.745E-06     1.54835E-03     99.9971E-06     99.9971E-06    -49.4937E-06    -49.5035E-06    -49.4986E-06    -49.4986E-06     99.9971E-06    -9.80054E-09    -10.3616E-09     10.3616E-09     99.9971E-06     99.9971E-06    -49.4937E-06    -49.5035E-06    -49.4986E-06    -49.4986E-06     99.9971E-06    -9.80054E-09    -10.3616E-09     10.3616E-09     999.971E-03     999.970E-03     999.970E-03     32.1990E-06    -33.3519E-06         1.00000    -333.323E-03     999.971E-03    -574.149E-09    -574.149E-09     999.970E-03    -32.7777E-06    -34.6541E-06     34.6541E-06
             836              0.              0.              0.              0.              0.              0.              0.              0.     1.55505E-03     123.750E-06    -74.2532E-06     1.54834E-03     99.9996E-06     99.9996E-06    -49.4958E-06    -49.5037E-06    -49.5003E-06    -49.4993E-06     99.9996E-06     1.36746E-09     81.9198E-12     1.11798E-09     99.9996E-06     99.9996E-06    -49.4958E-06    -49.5037E-06    -49.5003E-06    -49.4993E-06     99.9996E-06     1.36746E-09     81.9198E-12     1.11798E-09     999.996E-03     999.997E-03     999.997E-03     27.3606E-06    -25.4906E-06         1.00002    -333.333E-03     999.996E-03    -2.42297E-06     4.29377E-06     999.997E-03     4.57344E-06     273.979E-09     3.73906E-06
             837              0.              0.              0.              0.              0.              0.              0.              0.     1.55348E-03     123.749E-06    -24.7468E-06     1.54834E-03     100.000E-06     100.000E-06    -49.4966E-06    -49.5034E-06    -49.4991E-06    -49.5009E-06     100.000E-06    -2.26035E-09    -2.42187E-09     289.303E-12     100.000E-06     100.000E-06    -49.4966E-06    -49.5034E-06    -49.4991E-06    -49.5009E-06     100.000E-06    -2.26035E-09    -2.42187E-09     289.303E-12              1.     999.997E-03     999.997E-03     20.3258E-06    -25.5059E-06         1.00002    -333.331E-03         1.00000     3.17084E-06    -8.35027E-06     999.997E-03    -7.55970E-06    -8.09990E-06     967.570E-09
             838              0.              0.              0.              0.              0.              0.              0.              0.     1.55348E-03     123.749E-06     24.7468E-06     1.54834E-03     100.000E-06     100.000E-06    -49.4966E-06    -49.5034E-06    -49.4991E-06    -49.5009E-06     100.000E-06     2.26035E-09    -2.42187E-09    -289.303E-12     100.000E-06     100.000E-06    -49.4966E-06    -49.5034E-06    -49.4991E-06    -49.5009E-06     100.000E-06     2.26035E-09    -2.42187E-09    -289.303E-12              1.     999.997E-03     999.997E-03     20.3258E-06    -25.5059E-06         1.00002    -333.331E-03         1.00000     3.17084E-06    -8.35027E-06     999.997E-03     7.55970E-06    -8.09990E-06    -967.570E-09
             839              0.              0.              0.              0.              0.              0.              0.              0.     1.55505E-03     123.750E-06     74.2532E-06     1.54834E-03     99.9996E-06     99.9996E-06    -49.4958E-06    -49.5037E-06    -49.5003E-06    -49.4993E-06     99.9996E-06    -1.36746E-09     81.9198E-12    -1.11798E-09     99.9996E-06     99.9996E-06    -49.4958E-06    -49.5037E-06    -49.5003E-06    -49.4993E-06     99.9996E-06    -1.36746E-09     81.9198E-12    -1.11798E-09     999.996E-03     999.997E-03     999.997E-03     27.3606E-06    -25.4906E-06         1.00002    -333.333E-03     999.996E-03    -2.42297E-06     4.29377E-06     999.997E-03    -4.57344E-06     273.979E-09    -3.73906E-06
             840              0.              0.              0.              0.              0.              0.              0.              0.     1.55820E-03     123.745E-06     123.745E-06     1.54835E-03     99.9971E-06     99.9971E-06    -49.4937E-06    -49.5035E-06    -49.4986E-06    -49.4986E-06     99.9971E-06     9.80054E-09    -10.3616E-09    -10.3616E-09     99.9971E-06     99.9971E-06    -49.4937E-06    -49.5035E-06    -49.4986E-06    -49.4986E-06     99.9971E-06     9.80054E-09    -10.3616E-09    -10.3616E-09     999.971E-03     999.970E-03     999.970E-03     32.1990E-06    -33.3519E-06         1.00000    -333.323E-03     999.971E-03    -574.149E-09    -574.149E-09     999.970E-03     32.7777E-06    -34.6541E-06    -34.6541E-06
             841              0.              0.              0.              0.              0.              0.              0.              0.     1.45886E-03     123.758E-06    -123.758E-06     1.44833E-03     100.005E-06     100.005E-06    -49.4944E-06    -49.5102E-06    -49.5023E-06    -49.5023E-06     100.005E-06     15.7525E-09     16.6804E-09    -16.6804E-09     100.005E-06     100.005E-06    -49.4944E-06    -49.5102E-06    -49.5023E-06    -49.5023E-06     100.005E-06     15.7525E-09     16.6804E-09    -16.6804E-09         1.00005         1.00005         1.00005     54.0124E-06    -51.3676E-06         1.00010    -333.350E-03         1.00005     1.32853E-06     1.32853E-06         1.00005     52.6839E-06     55.7872E-06    -55.7872E-06
             842              0.              0.              0.              0.              0.              0.              0.              0.     1.45551E-03     123.750E-06    -74.2449E-06     1.44834E-03     100.001E-06     100.001E-06    -49.4940E-06    -49.5067E-06    -49.4997E-06    -49.5010E-06     100.001E-06    -2.03085E-09     473.827E-12    -1.66160E-09     100.001E-06     100.001E-06    -49.4940E-06    -49.5067E-06    -49.4997E-06    -49.5010E-06     100.001E-06    -2.03085E-09     473.827E-12    -1.66160E-09         1.00001         1.00001         1.00001     41.0554E-06    -44.0787E-06         1.00005    -333.334E-03         1.00001     3.05247E-06    -6.07361E-06         1.00001    -6.79213E-06     1.58471E-06    -5.55721E-06
             843              0.              0.              0.              0.              0.              0.              0.              0.     1.45382E-03     123.752E-06    -24.7552E-06     1.44834E-03     100.000E-06     100.000E-06    -49.4945E-06    -49.5055E-06    -49.5015E-06    -49.4985E-06     100.000E-06     3.40163E-09     4.16403E-09    -415.946E-12     100.000E-06     100.000E-06    -49.4945E-06    -49.5055E-06    -49.5015E-06    -49.4985E-06     100.000E-06     3.40163E-09     4.16403E-09    -415.946E-12         1.00000         1.00000         1.00000     40.9480E-06    -32.4951E-06         1.00004    -333.338E-03         1.00000    -5.68720E-06     14.1418E-06         1.00000     11.3767E-06     13.9265E-06    -1.39112E-06
             844              0.              0.              0.              0.              0.              0.              0.              0.     1.45382E-03     123.752E-06     24.7552E-06     1.44834E-03     100.000E-06     100.000E-06    -49.4945E-06    -49.5055E-06    -49.5015E-06    -49.4985E-06     100.000E-06    -3.40163E-09     4.16403E-09     415.946E-12     100.000E-06     100.000E-06    -49.4945E-06    -49.5055E-06    -49.5015E-06    -49.4985E-06     100.000E-06    -3.40163E-09     4.16403E-09     415.946E-12         1.00000         1.00000         1.00000     40.9480E-06    -32.4951E-06         1.00004    -333.338E-03         1.00000    -5.68720E-06     14.1418E-06         1.00000    -11.3767E-06     13.9265E-06     1.39112E-06
             845              0.              0.              0.              0.              0.              0.              0.              0.     1.45551E-03     123.750E-06     74.2449E-06     1.44834E-03     100.001E-06     100.001E-06    -49.4940E-06    -49.5067E-06    -49.4997E-06    -49.5010E-06     100.001E-06     2.03085E-09     473.827E-12     1.66160E-09     100.001E-06     100.001E-06    -49.4940E-06    -49.5067E-06    -49.4997E-06    -49.5010E-06     100.001E-06     2.03085E-09     473.827E-12     1.66160E-09         1.00001         1.00001         1.00001     41.0554E-06    -44.0787E-06         1.00005    -333.334E-03         1.00001     3.05246E-06    -6.07361E-06         1.00001     6.79213E-06     1.58471E-06     5.55721E-06
             846              0.              0.              0.              0.              0.              0.              0.              0.     1.45886E-03     123.758E-06     123.758E-06     1.44833E-03     100.005E-06     100.005E-06    -49.4944E-06    -49.5102E-06    -49.5023E-06    -49.5023E-06     100.005E-06    -15.7525E-09     16.6804E-09     16.6804E-09     100.005E-06     100.005E-06    -49.4944E-06    -49.5102E-06    -49.5023E-06    -49.5023E-06     100.005E-06    -15.7525E-09     16.6804E-09     16.6804E-09         1.00005         1.00005         1.00005     54.0124E-06    -51.3676E-06         1.00010    -333.350E-03         1.00005     1.32853E-06     1.32853E-06         1.00005    -52.6839E-06     55.7872E-06     55.7872E-06
             847              0.              0.              0.              0.              0.              0.              0.              0.     1.35967E-03     123.737E-06    -123.737E-06     1.34836E-03     99.9921E-06     99.9921E-06    -49.4834E-06    -49.5088E-06    -49.4961E-06    -49.4961E-06     99.9921E-06    -25.3697E-09    -27.0267E-09     27.0267E-09     99.9921E-06     99.9921E-06    -49.4834E-06    -49.5088E-06    -49.4961E-06    -49.4961E-06     99.9921E-06    -25.3697E-09    -27.0267E-09     27.0267E-09     999.921E-03     999.918E-03     999.918E-03     82.0647E-06    -87.6001E-06         1.00001    -333.304E-03     999.921E-03    -2.75143E-06    -2.75143E-06     999.918E-03    -84.8487E-06    -90.3904E-06     90.3904E-06
             848              0.              0.              0.              0.              0.              0.              0.              0.     1.35604E-03     123.750E-06    -74.2583E-06     1.34834E-03     99.9986E-06     99.9986E-06    -49.4890E-06    -49.5096E-06    -49.5001E-06    -49.4985E-06     99.9986E-06     2.91805E-09    -2.02393E-09     2.84419E-09     99.9986E-06     99.9986E-06    -49.4890E-06    -49.5096E-06    -49.5001E-06    -49.4985E-06     99.9986E-06     2.91805E-09    -2.02393E-09     2.84419E-09     999.986E-03     999.988E-03     999.988E-03     70.8100E-06    -67.1140E-06         1.00006    -333.331E-03     999.986E-03    -3.62786E-06     7.32940E-06     999.988E-03     9.75938E-06    -6.76900E-06     9.51233E-06
             849              0.              0.              0.              0.              0.              0.              0.              0.     1.35424E-03     123.747E-06    -24.7418E-06     1.34834E-03    100.0000E-06    100.0000E-06    -49.4912E-06    -49.5088E-06    -49.4973E-06    -49.5027E-06    100.0000E-06    -5.08868E-09    -7.49071E-09     830.044E-12    100.0000E-06    100.0000E-06    -49.4912E-06    -49.5088E-06    -49.4973E-06    -49.5027E-06    100.0000E-06    -5.08868E-09    -7.49071E-09     830.044E-12    1000.000E-03     999.992E-03     999.992E-03     50.5239E-06    -66.8576E-06         1.00006    -333.325E-03    1000.000E-03     9.97559E-06    -26.3047E-06     999.992E-03    -17.0190E-06    -25.0525E-06     2.77607E-06
             850              0.              0.              0.              0.              0.              0.              0.              0.     1.35424E-03     123.747E-06     24.7418E-06     1.34834E-03    100.0000E-06    100.0000E-06    -49.4912E-06    -49.5088E-06    -49.4973E-06    -49.5027E-06    100.0000E-06     5.08868E-09    -7.49071E-09    -830.044E-12    100.0000E-06    100.0000E-06    -49.4912E-06    -49.5088E-06    -49.4973E-06    -49.5027E-06    100.0000E-06     5.08868E-09    -7.49071E-09    -830.044E-12    1000.000E-03     999.992E-03     999.992E-03     50.5239E-06    -66.8576E-06         1.00006    -333.325E-03    1000.000E-03     9.97559E-06    -26.3047E-06     999.992E-03     17.0190E-06    -25.0525E-06    -2.77607E-06
             851              0.              0.              0.              0.              0.              0.              0.              0.     1.35604E-03     123.750E-06     74.2583E-06     1.34834E-03     99.9986E-06     99.9986E-06    -49.4890E-06    -49.5096E-06    -49.5001E-06    -49.4985E-06     99.9986E-06    -2.91805E-09    -2.02393E-09    -2.84419E-09     99.9986E-06     99.9986E-06    -49.4890E-06    -49.5096E-06    -49.5001E-06    -49.4985E-06     99.9986E-06    -2.91805E-09    -2.02393E-09    -2.84419E-09     999.986E-03     999.988E-03     999.988E-03     70.8100E-06    -67.1140E-06         1.00006    -333.331E-03     999.986E-03    -3.62786E-06     7.32940E-06     999.988E-03    -9.75938E-06    -6.76900E-06    -9.51233E-06
             852              0.              0.              0.              0.              0.              0.              0.              0.     1.35967E-03     123.737E-06     123.737E-06     1.34836E-03     99.9921E-06     99.9921E-06    -49.4834E-06    -49.5088E-06    -49.4961E-06    -49.4961E-06     99.9921E-06     25.3697E-09    -27.0267E-09    -27.0267E-09     99.9921E-06     99.9921E-06    -49.4834E-06    -49.5088E-06    -49.4961E-06    -49.4961E-06     99.9921E-06     25.3697E-09    -27.0267E-09    -27.0267E-09     999.921E-03     999.918E-03     999.918E-03     82.0647E-06    -87.6001E-06         1.00001    -333.304E-03     999.921E-03    -2.75143E-06    -2.75143E-06     999.918E-03     84.8487E-06    -90.3904E-06    -90.3904E-06
             853              0.              0.              0.              0.              0.              0.              0.              0.     1.26052E-03     123.771E-06    -123.771E-06     1.24831E-03     100.012E-06     100.012E-06    -49.4858E-06    -49.5264E-06    -49.5061E-06    -49.5061E-06     100.012E-06     40.6234E-09     43.6011E-09    -43.6011E-09     100.012E-06     100.012E-06    -49.4858E-06    -49.5264E-06    -49.5061E-06    -49.5061E-06     100.012E-06     40.6234E-09     43.6011E-09    -43.6011E-09         1.00012         1.00013         1.00013     142.184E-06    -129.631E-06         1.00026    -333.381E-03         1.00012     6.32032E-06     6.32032E-06         1.00013     135.864E-06     145.823E-06    -145.823E-06
             854              0.              0.              0.              0.              0.              0.              0.              0.     1.25666E-03     123.751E-06    -74.2367E-06     1.24834E-03     100.002E-06     100.002E-06    -49.4844E-06    -49.5177E-06    -49.5001E-06    -49.5019E-06     100.002E-06    -4.31342E-09     5.26427E-09    -4.33922E-09     100.002E-06     100.002E-06    -49.4844E-06    -49.5177E-06    -49.5001E-06    -49.5019E-06     100.002E-06    -4.31342E-09     5.26427E-09    -4.33922E-09         1.00002         1.00002         1.00002     108.927E-06    -113.749E-06         1.00013    -333.338E-03         1.00002     3.63895E-06    -8.44618E-06         1.00002    -14.4262E-06     17.6062E-06    -14.5124E-06
             855              0.              0.              0.              0.              0.              0.              0.              0.     1.25470E-03     123.756E-06    -24.7633E-06     1.24833E-03     99.9999E-06     99.9999E-06    -49.4858E-06    -49.5140E-06    -49.5046E-06    -49.4952E-06     99.9999E-06     7.34848E-09     12.9283E-09    -1.31089E-09     99.9999E-06     99.9999E-06    -49.4858E-06    -49.5140E-06    -49.5046E-06    -49.4952E-06     99.9999E-06     7.34848E-09     12.9283E-09    -1.31089E-09     999.998E-03         1.00001         1.00001     108.785E-06    -79.2792E-06         1.00009    -333.348E-03     999.998E-03    -16.7156E-06     46.2338E-06         1.00001     24.5769E-06     43.2386E-06    -4.38426E-06
             856              0.              0.              0.              0.              0.              0.              0.              0.     1.25470E-03     123.756E-06     24.7633E-06     1.24833E-03     99.9999E-06     99.9999E-06    -49.4858E-06    -49.5140E-06    -49.5046E-06    -49.4952E-06     99.9999E-06    -7.34848E-09     12.9283E-09     1.31089E-09     99.9999E-06     99.9999E-06    -49.4858E-06    -49.5140E-06    -49.5046E-06    -49.4952E-06     99.9999E-06    -7.34848E-09     12.9283E-09     1.31089E-09     999.998E-03         1.00001         1.00001     108.785E-06    -79.2792E-06         1.00009    -333.348E-03     999.998E-03    -16.7156E-06     46.2338E-06         1.00001    -24.5769E-06     43.2386E-06     4.38426E-06
             857              0.              0.              0.              0.              0.              0.              0.              0.     1.25666E-03     123.751E-06     74.2367E-06     1.24834E-03     100.002E-06     100.002E-06    -49.4844E-06    -49.5177E-06    -49.5001E-06    -49.5019E-06     100.002E-06     4.31342E-09     5.26427E-09     4.33922E-09     100.002E-06     100.002E-06    -49.4844E-06    -49.5177E-06    -49.5001E-06    -49.5019E-06     100.002E-06     4.31342E-09     5.26427E-09     4.33922E-09         1.00002         1.00002         1.00002     108.927E-06    -113.749E-06         1.00013    -333.338E-03         1.00002     3.63895E-06    -8.44618E-06         1.00002     14.4262E-06     17.6062E-06     14.5124E-06
             858              0.              0.              0.              0.              0.              0.              0.              0.     1.26052E-03     123.771E-06     123.771E-06     1.24831E-03     100.012E-06     100.012E-06    -49.4858E-06    -49.5264E-06    -49.5061E-06    -49.5061E-06     100.012E-06    -40.6234E-09     43.6011E-09     43.6011E-09     100.012E-06     100.012E-06    -49.4858E-06    -49.5264E-06    -49.5061E-06    -49.5061E-06     100.012E-06    -40.6234E-09     43.6011E-09     43.6011E-09         1.00012         1.00013         1.00013     142.184E-06    -129.631E-06         1.00026    -333.381E-03         1.00012     6.32032E-06     6.32032E-06         1.00013    -135.864E-06     145.823E-06     145.823E-06
             859              0.              0.              0.              0.              0.              0.              0.              0.     1.16164E-03     123.715E-06    -123.715E-06     1.14839E-03     99.9794E-06     99.9794E-06    -49.4570E-06    -49.5226E-06    -49.4898E-06    -49.4898E-06     99.9793E-06    -65.6747E-09    -70.0824E-09     70.0824E-09     99.9794E-06     99.9794E-06    -49.4570E-06    -49.5226E-06    -49.4898E-06    -49.4898E-06     99.9793E-06    -65.6747E-09    -70.0824E-09     70.0824E-09     999.794E-03     999.783E-03     999.783E-03     208.575E-06    -230.490E-06         1.00001    -333.254E-03     999.794E-03    -10.8421E-06    -10.8421E-06     999.782E-03    -219.648E-06    -234.389E-06     234.389E-06
             860              0.              0.              0.              0.              0.              0.              0.              0.     1.15737E-03     123.748E-06    -74.2711E-06     1.14834E-03     99.9960E-06     99.9960E-06    -49.4711E-06    -49.5249E-06    -49.4987E-06    -49.4973E-06     99.9960E-06     5.53638E-09    -11.9440E-09     5.93872E-09     99.9960E-06     99.9960E-06    -49.4711E-06    -49.5249E-06    -49.4987E-06    -49.4973E-06     99.9960E-06     5.53638E-09    -11.9440E-09     5.93872E-09     999.960E-03     999.965E-03     999.965E-03     184.934E-06    -175.347E-06         1.00014    -333.325E-03     999.960E-03     197.784E-09     9.42836E-06     999.965E-03     18.5163E-06    -39.9466E-06     19.8619E-06
             861              0.              0.              0.              0.              0.              0.              0.              0.     1.15527E-03     123.740E-06    -24.7284E-06     1.14835E-03     99.9993E-06     99.9993E-06    -49.4771E-06    -49.5222E-06    -49.4914E-06    -49.5080E-06     99.9993E-06    -10.7729E-09    -22.9643E-09     1.61540E-09     99.9993E-06     99.9993E-06    -49.4771E-06    -49.5222E-06    -49.4914E-06    -49.5080E-06     99.9993E-06    -10.7729E-09    -22.9643E-09     1.61540E-09     999.993E-03     999.972E-03     999.972E-03     129.186E-06    -172.426E-06         1.00014    -333.309E-03     999.993E-03     33.8648E-06    -77.0705E-06     999.972E-03    -36.0298E-06    -76.8036E-06     5.40268E-06
             862              0.              0.              0.              0.              0.              0.              0.              0.     1.15527E-03     123.740E-06     24.7284E-06     1.14835E-03     99.9993E-06     99.9993E-06    -49.4771E-06    -49.5222E-06    -49.4914E-06    -49.5080E-06     99.9993E-06     10.7729E-09    -22.9643E-09    -1.61540E-09     99.9993E-06     99.9993E-06    -49.4771E-06    -49.5222E-06    -49.4914E-06    -49.5080E-06     99.9993E-06     10.7729E-09    -22.9643E-09    -1.61540E-09     999.993E-03     999.972E-03     999.972E-03     129.186E-06    -172.426E-06         1.00014    -333.309E-03     999.993E-03     33.8648E-06    -77.0705E-06     999.972E-03     36.0298E-06    -76.8036E-06    -5.40268E-06
             863              0.              0.              0.              0.              0.              0.              0.              0.     1.15737E-03     123.748E-06     74.2711E-06     1.14834E-03     99.9960E-06     99.9960E-06    -49.4711E-06    -49.5249E-06    -49.4987E-06    -49.4973E-06     99.9960E-06    -5.53638E-09    -11.9440E-09    -5.93872E-09     99.9960E-06     99.9960E-06    -49.4711E-06    -49.5249E-06    -49.4987E-06    -49.4973E-06     99.9960E-06    -5.53638E-09    -11.9440E-09    -5.93872E-09     999.960E-03     999.965E-03     999.965E-03     184.934E-06    -175.347E-06         1.00014    -333.325E-03     999.960E-03     197.784E-09     9.42836E-06     999.965E-03    -18.5163E-06    -39.9466E-06    -19.8619E-06
             864              0.              0.              0.              0.              0.              0.              0.              0.     1.16164E-03     123.715E-06     123.715E-06     1.14839E-03     99.9794E-06     99.9794E-06    -49.4570E-06    -49.5226E-06    -49.4898E-06    -49.4898E-06     99.9793E-06     65.6747E-09    -70.0824E-09    -70.0824E-09     99.9794E-06     99.9794E-06    -49.4570E-06    -49.5226E-06    -49.4898E-06    -49.4898E-06     99.9793E-06     65.6747E-09    -70.0824E-09    -70.0824E-09     999.794E-03     999.783E-03     999.783E-03     208.575E-06    -230.490E-06         1.00001    -333.254E-03     999.794E-03    -10.8421E-06    -10.8421E-06     999.782E-03     219.648E-06    -234.389E-06    -234.389E-06
             865              0.              0.              0.              0.              0.              0.              0.              0.     1.06278E-03     123.806E-06    -123.806E-06     1.04826E-03     100.036E-06     100.036E-06    -49.4654E-06    -49.5704E-06    -49.5179E-06    -49.5179E-06     100.036E-06     104.838E-09     115.419E-09    -115.419E-09     100.036E-06     100.036E-06    -49.4654E-06    -49.5704E-06    -49.5179E-06    -49.5179E-06     100.036E-06     104.838E-09     115.419E-09    -115.419E-09         1.00036         1.00039         1.00039     376.067E-06    -325.830E-06         1.00071    -333.479E-03         1.00036     25.4384E-06     25.4384E-06         1.00039     350.629E-06     386.017E-06    -386.017E-06
             866              0.              0.              0.              0.              0.              0.              0.              0.     1.05823E-03     123.753E-06    -74.2128E-06     1.04834E-03     100.008E-06     100.008E-06    -49.4597E-06    -49.5481E-06    -49.5047E-06    -49.5031E-06     100.008E-06    -7.96602E-09     27.8214E-09    -14.1912E-09     100.008E-06     100.008E-06    -49.4597E-06    -49.5481E-06    -49.5047E-06    -49.5031E-06     100.008E-06    -7.96602E-09     27.8214E-09    -14.1912E-09         1.00008         1.00008         1.00008     298.507E-06    -292.340E-06         1.00037    -333.363E-03         1.00008    -2.32137E-06     8.59394E-06         1.00008    -26.6422E-06     93.0481E-06    -47.4621E-06
             867              0.              0.              0.              0.              0.              0.              0.              0.     1.05589E-03     123.766E-06    -24.7834E-06     1.04832E-03     99.9984E-06     99.9984E-06    -49.4633E-06    -49.5349E-06    -49.5152E-06    -49.4830E-06     99.9984E-06     14.5490E-09     42.6971E-09    -5.82974E-09     99.9984E-06     99.9984E-06    -49.4633E-06    -49.5349E-06    -49.5152E-06    -49.4830E-06     99.9984E-06     14.5490E-09     42.6971E-09    -5.82974E-09     999.984E-03         1.00004         1.00004     299.559E-06    -179.758E-06         1.00022    -333.388E-03     999.983E-03    -47.6201E-06     167.522E-06         1.00004     48.6590E-06     142.800E-06    -19.4975E-06
             868              0.              0.              0.              0.              0.              0.              0.              0.     1.05589E-03     123.766E-06     24.7834E-06     1.04832E-03     99.9984E-06     99.9984E-06    -49.4633E-06    -49.5349E-06    -49.5152E-06    -49.4830E-06     99.9984E-06    -14.5490E-09     42.6971E-09     5.82974E-09     99.9984E-06     99.9984E-06    -49.4633E-06    -49.5349E-06    -49.5152E-06    -49.4830E-06     99.9984E-06    -14.5490E-09     42.6971E-09     5.82974E-09     999.984E-03         1.00004         1.00004     299.559E-06    -179.758E-06         1.00022    -333.388E-03     999.983E-03    -47.6201E-06     167.522E-06         1.00004    -48.6590E-06     142.800E-06     19.4975E-06
             869              0.              0.              0.              0.              0.              0.              0.              0.     1.05823E-03     123.753E-06     74.2128E-06     1.04834E-03     100.008E-06     100.008E-06    -49.4597E-06    -49.5481E-06    -49.5047E-06    -49.5031E-06     100.008E-06     7.96602E-09     27.8214E-09     14.1912E-09     100.008E-06     100.008E-06    -49.4597E-06    -49.5481E-06    -49.5047E-06    -49.5031E-06     100.008E-06     7.96602E-09     27.8214E-09     14.1912E-09         1.00008         1.00008         1.00008     298.507E-06    -292.340E-06         1.00037    -333.363E-03         1.00008    -2.32137E-06     8.59394E-06         1.00008     26.6422E-06     93.0481E-06     47.4621E-06
             870              0.              0.              0.              0.              0.              0.              0.              0.     1.06278E-03     123.806E-06     123.806E-06     1.04826E-03     100.036E-06     100.036E-06    -49.4654E-06    -49.5704E-06    -49.5179E-06    -49.5179E-06     100.036E-06    -104.838E-09     115.419E-09     115.419E-09     100.036E-06     100.036E-06    -49.4654E-06    -49.5704E-06    -49.5179E-06    -49.5179E-06     100.036E-06    -104.838E-09     115.419E-09     115.419E-09         1.00036         1.00039         1.00039     376.067E-06    -325.830E-06         1.00071    -333.479E-03         1.00036     25.4384E-06     25.4384E-06         1.00039    -350.629E-06     386.017E-06     386.017E-06
             871              0.              0.              0.              0.              0.              0.              0.              0.     964.452E-06     123.650E-06    -123.650E-06     948.467E-06     99.9549E-06     99.9549E-06    -49.3936E-06    -49.5619E-06    -49.4776E-06    -49.4776E-06     99.9547E-06    -168.478E-09    -179.818E-09     179.818E-09     99.9549E-06     99.9549E-06    -49.3936E-06    -49.5619E-06    -49.4776E-06    -49.4776E-06     99.9547E-06    -168.478E-09    -179.818E-09     179.818E-09     999.550E-03     999.504E-03     999.504E-03     517.283E-06    -607.991E-06         1.00011    -333.138E-03     999.549E-03    -44.5204E-06    -44.5204E-06     999.502E-03    -563.470E-06    -601.396E-06     601.396E-06
             872              0.              0.              0.              0.              0.              0.              0.              0.     959.257E-06     123.734E-06    -74.3003E-06     948.337E-06     99.9925E-06     99.9925E-06    -49.4262E-06    -49.5663E-06    -49.4940E-06    -49.4984E-06     99.9924E-06     9.25432E-09    -50.4076E-09     5.88194E-09     99.9925E-06     99.9925E-06    -49.4262E-06    -49.5663E-06    -49.4940E-06    -49.4984E-06     99.9924E-06     9.25432E-09    -50.4076E-09     5.88194E-09     999.925E-03     999.942E-03     999.942E-03     485.544E-06    -451.213E-06         1.00039    -333.325E-03     999.924E-03     32.0154E-06     2.60809E-06     999.941E-03     30.9509E-06    -168.587E-06     19.6720E-06
             873              0.              0.              0.              0.              0.              0.              0.              0.     956.741E-06     123.714E-06    -24.6911E-06     948.387E-06     99.9969E-06     99.9969E-06    -49.4401E-06    -49.5569E-06    -49.4747E-06    -49.5223E-06     99.9968E-06    -19.4018E-09    -67.4941E-09    -500.032E-12     99.9969E-06     99.9969E-06    -49.4401E-06    -49.5569E-06    -49.4747E-06    -49.5223E-06     99.9968E-06    -19.4018E-09    -67.4941E-09    -500.032E-12     999.969E-03     999.922E-03     999.922E-03     343.207E-06    -437.848E-06         1.00036    -333.276E-03     999.969E-03     112.098E-06    -206.480E-06     999.921E-03    -64.8890E-06    -225.733E-06    -1.67235E-06
             874              0.              0.              0.              0.              0.              0.              0.              0.     956.741E-06     123.714E-06     24.6911E-06     948.387E-06     99.9969E-06     99.9969E-06    -49.4401E-06    -49.5569E-06    -49.4747E-06    -49.5223E-06     99.9968E-06     19.4018E-09    -67.4941E-09     500.032E-12     99.9969E-06     99.9969E-06    -49.4401E-06    -49.5569E-06    -49.4747E-06    -49.5223E-06     99.9968E-06     19.4018E-09    -67.4941E-09     500.032E-12     999.969E-03     999.922E-03     999.922E-03     343.207E-06    -437.848E-06         1.00036    -333.276E-03     999.969E-03     112.098E-06    -206.480E-06     999.921E-03     64.8890E-06    -225.733E-06     1.67235E-06
             875              0.              0.              0.              0.              0.              0.              0.              0.     959.257E-06     123.734E-06     74.3003E-06     948.337E-06     99.9925E-06     99.9925E-06    -49.4262E-06    -49.5663E-06    -49.4940E-06    -49.4984E-06     99.9924E-06    -9.25432E-09    -50.4076E-09    -5.88194E-09     99.9925E-06     99.9925E-06    -49.4262E-06    -49.5663E-06    -49.4940E-06    -49.4984E-06     99.9924E-06    -9.25432E-09    -50.4076E-09    -5.88194E-09     999.925E-03     999.942E-03     999.942E-03     485.544E-06    -451.213E-06         1.00039    -333.325E-03     999.924E-03     32.0154E-06     2.60809E-06     999.941E-03    -30.9509E-06    -168.587E-06    -19.6720E-06
             876              0.              0.              0.              0.              0.              0.              0.              0.     964.452E-06     123.650E-06     123.650E-06     948.467E-06     99.9549E-06     99.9549E-06    -49.3936E-06    -49.5619E-06    -49.4776E-06    -49.4776E-06     99.9547E-06     168.478E-09    -179.818E-09    -179.818E-09     99.9549E-06     99.9549E-06    -49.3936E-06    -49.5619E-06    -49.4776E-06    -49.4776E-06     99.9547E-06     168.478E-09    -179.818E-09    -179.818E-09     999.550E-03     999.504E-03     999.504E-03     517.283E-06    -607.991E-06         1.00011    -333.138E-03     999.549E-03    -44.5204E-06    -44.5204E-06     999.502E-03     563.470E-06    -601.396E-06    -601.396E-06
             877              0.              0.              0.              0.              0.              0.              0.              0.     866.007E-06     123.906E-06    -123.906E-06     848.094E-06     100.123E-06     100.123E-06    -49.4234E-06    -49.6985E-06    -49.5606E-06    -49.5606E-06     100.123E-06     274.343E-09     306.904E-09    -306.904E-09     100.123E-06     100.123E-06    -49.4234E-06    -49.6985E-06    -49.5606E-06    -49.5606E-06     100.123E-06     274.343E-09     306.904E-09    -306.904E-09         1.00123         1.00131         1.00131     996.933E-06    -842.786E-06         1.00215    -333.821E-03         1.00123     79.3994E-06     79.3994E-06         1.00131     917.534E-06     1.02644E-03    -1.02644E-03
             878              0.              0.              0.              0.              0.              0.              0.              0.     860.501E-06     123.768E-06    -74.1444E-06     848.319E-06     100.036E-06     100.036E-06    -49.3985E-06    -49.6374E-06    -49.5308E-06    -49.5049E-06     100.036E-06    -5.69717E-09     118.639E-09    -45.9538E-09     100.036E-06     100.036E-06    -49.3985E-06    -49.6374E-06    -49.5308E-06    -49.5049E-06     100.036E-06    -5.69717E-09     118.639E-09    -45.9538E-09         1.00036         1.00040         1.00040     831.667E-06    -766.046E-06         1.00116    -333.487E-03         1.00036    -53.3264E-06     119.808E-06         1.00040    -19.0541E-06     396.787E-06    -153.692E-06
             879              0.              0.              0.              0.              0.              0.              0.              0.     857.615E-06     123.794E-06    -24.8321E-06     848.269E-06     99.9992E-06     99.9992E-06    -49.4084E-06    -49.5902E-06    -49.5556E-06    -49.4429E-06     99.9991E-06     26.4554E-09     147.097E-09    -22.1180E-09     99.9992E-06     99.9992E-06    -49.4084E-06    -49.5902E-06    -49.5556E-06    -49.4429E-06     99.9991E-06     26.4554E-09     147.097E-09    -22.1180E-09     999.991E-03         1.00020         1.00020     814.695E-06    -401.544E-06         1.00060    -333.537E-03     999.988E-03    -169.881E-06     583.851E-06         1.00020     88.4794E-06     491.962E-06    -73.9732E-06
             880              0.              0.              0.              0.              0.              0.              0.              0.     857.615E-06     123.794E-06     24.8321E-06     848.269E-06     99.9992E-06     99.9992E-06    -49.4084E-06    -49.5902E-06    -49.5556E-06    -49.4429E-06     99.9991E-06    -26.4554E-09     147.097E-09     22.1180E-09     99.9992E-06     99.9992E-06    -49.4084E-06    -49.5902E-06    -49.5556E-06    -49.4429E-06     99.9991E-06    -26.4554E-09     147.097E-09     22.1180E-09     999.991E-03         1.00020         1.00020     814.695E-06    -401.544E-06         1.00060    -333.537E-03     999.988E-03    -169.881E-06     583.851E-06         1.00020    -88.4794E-06     491.962E-06     73.9732E-06
             881              0.              0.              0.              0.              0.              0.              0.              0.     860.501E-06     123.768E-06     74.1444E-06     848.319E-06     100.036E-06     100.036E-06    -49.3985E-06    -49.6374E-06    -49.5308E-06    -49.5049E-06     100.036E-06     5.69717E-09     118.639E-09     45.9538E-09     100.036E-06     100.036E-06    -49.3985E-06    -49.6374E-06    -49.5308E-06    -49.5049E-06     100.036E-06     5.69717E-09     118.639E-09     45.9538E-09         1.00036         1.00040         1.00040     831.667E-06    -766.046E-06         1.00116    -333.487E-03         1.00036    -53.3264E-06     119.808E-06         1.00040     19.0541E-06     396.787E-06     153.692E-06
             882              0.              0.              0.              0.              0.              0.              0.              0.     866.007E-06     123.906E-06     123.906E-06     848.094E-06     100.123E-06     100.123E-06    -49.4234E-06    -49.6985E-06    -49.5606E-06    -49.5606E-06     100.123E-06    -274.343E-09     306.904E-09     306.904E-09     100.123E-06     100.123E-06    -49.4234E-06    -49.6985E-06    -49.5606E-06    -49.5606E-06     100.123E-06    -274.343E-09     306.904E-09     306.904E-09         1.00123         1.00131         1.00131     996.933E-06    -842.786E-06         1.00215    -333.821E-03         1.00123     79.3994E-06     79.3994E-06         1.00131    -917.534E-06     1.02644E-03     1.02644E-03
             883              0.              0.              0.              0.              0.              0.              0.              0.     768.723E-06     123.487E-06    -123.487E-06     748.623E-06     99.9139E-06     99.9139E-06    -49.2484E-06    -49.6670E-06    -49.4567E-06    -49.4567E-06     99.9119E-06    -420.593E-09    -474.699E-09     474.699E-09     99.9139E-06     99.9139E-06    -49.2484E-06    -49.6670E-06    -49.4567E-06    -49.4567E-06     99.9119E-06    -420.593E-09    -474.699E-09     474.699E-09     999.144E-03     998.919E-03     998.919E-03     1.17788E-03    -1.62243E-03         1.00054    -332.825E-03     999.135E-03    -215.765E-06    -215.765E-06     998.906E-03    -1.40667E-03    -1.58762E-03     1.58762E-03
             884              0.              0.              0.              0.              0.              0.              0.              0.     762.122E-06     123.697E-06    -74.3840E-06     748.328E-06     99.9941E-06     99.9941E-06    -49.3125E-06    -49.6817E-06    -49.4757E-06    -49.5182E-06     99.9938E-06     18.4171E-09    -205.118E-09     16.8076E-09     99.9941E-06     99.9941E-06    -49.3125E-06    -49.6817E-06    -49.4757E-06    -49.5182E-06     99.9938E-06     18.4171E-09    -205.118E-09     16.8076E-09     999.944E-03     999.929E-03     999.929E-03     1.22271E-03    -1.24701E-03         1.00118    -333.302E-03     999.937E-03     130.833E-06    -152.924E-06     999.927E-03     61.5958E-06    -686.014E-06     56.2128E-06
             885              0.              0.              0.              0.              0.              0.              0.              0.     759.020E-06     123.629E-06    -24.5972E-06     748.480E-06     100.015E-06     100.015E-06    -49.3575E-06    -49.6583E-06    -49.4320E-06    -49.5834E-06     100.015E-06    -17.1844E-09    -207.959E-09     3.75640E-09     100.015E-06     100.015E-06    -49.3575E-06    -49.6583E-06    -49.4320E-06    -49.5834E-06     100.015E-06    -17.1844E-09    -207.959E-09     3.75640E-09         1.00016     999.899E-03     999.899E-03     751.752E-06    -1.26033E-03         1.00116    -333.130E-03         1.00015     253.360E-06    -759.690E-06     999.897E-03    -57.4728E-06    -695.516E-06     12.5632E-06
             886              0.              0.              0.              0.              0.              0.              0.              0.     759.020E-06     123.629E-06     24.5972E-06     748.480E-06     100.015E-06     100.015E-06    -49.3575E-06    -49.6583E-06    -49.4320E-06    -49.5834E-06     100.015E-06     17.1844E-09    -207.959E-09    -3.75640E-09     100.015E-06     100.015E-06    -49.3575E-06    -49.6583E-06    -49.4320E-06    -49.5834E-06     100.015E-06     17.1844E-09    -207.959E-09    -3.75640E-09         1.00016     999.899E-03     999.899E-03     751.752E-06    -1.26033E-03         1.00116    -333.130E-03         1.00015     253.360E-06    -759.690E-06     999.897E-03     57.4728E-06    -695.516E-06    -12.5632E-06
             887              0.              0.              0.              0.              0.              0.              0.              0.     762.122E-06     123.697E-06     74.3840E-06     748.328E-06     99.9941E-06     99.9941E-06    -49.3125E-06    -49.6817E-06    -49.4757E-06    -49.5182E-06     99.9938E-06    -18.4171E-09    -205.118E-09    -16.8076E-09     99.9941E-06     99.9941E-06    -49.3125E-06    -49.6817E-06    -49.4757E-06    -49.5182E-06     99.9938E-06    -18.4171E-09    -205.118E-09    -16.8076E-09     999.944E-03     999.929E-03     999.929E-03     1.22271E-03    -1.24701E-03         1.00118    -333.302E-03     999.937E-03     130.833E-06    -152.924E-06     999.927E-03    -61.5958E-06    -686.014E-06    -56.2128E-06
             888              0.              0.              0.              0.              0.              0.              0.              0.     768.723E-06     123.487E-06     123.487E-06     748.623E-06     99.9139E-06     99.9139E-06    -49.2484E-06    -49.6670E-06    -49.4567E-06    -49.4567E-06     99.9119E-06     420.593E-09    -474.699E-09    -474.699E-09     99.9139E-06     99.9139E-06    -49.2484E-06    -49.6670E-06    -49.4567E-06    -49.4567E-06     99.9119E-06     420.593E-09    -474.699E-09    -474.699E-09     999.144E-03     998.919E-03     998.919E-03     1.17788E-03    -1.62243E-03         1.00054    -332.825E-03     999.135E-03    -215.765E-06    -215.765E-06     998.906E-03     1.40667E-03    -1.58762E-03    -1.58762E-03
             889              0.              0.              0.              0.              0.              0.              0.              0.     670.985E-06     124.265E-06    -124.265E-06     647.562E-06     100.329E-06     100.329E-06    -49.2946E-06    -50.0307E-06    -49.6603E-06    -49.6603E-06     100.324E-06     731.415E-09     758.665E-09    -758.665E-09     100.329E-06     100.329E-06    -49.2946E-06    -50.0307E-06    -49.6603E-06    -49.6603E-06     100.324E-06     731.415E-09     758.665E-09    -758.665E-09         1.00330         1.00345         1.00345     2.61839E-03    -2.30570E-03         1.00575    -334.586E-03         1.00327     172.182E-06     172.182E-06         1.00341     2.44620E-03     2.53734E-03    -2.53734E-03
             890              0.              0.              0.              0.              0.              0.              0.              0.     664.060E-06     123.900E-06    -74.0345E-06     648.185E-06     100.111E-06     100.111E-06    -49.2398E-06    -49.8705E-06    -49.6090E-06    -49.5001E-06     100.110E-06     51.4301E-09     401.795E-09     2.42841E-09     100.111E-06     100.111E-06    -49.2398E-06    -49.8705E-06    -49.6090E-06    -49.5001E-06     100.110E-06     51.4301E-09     401.795E-09     2.42841E-09         1.00112         1.00103         1.00103     2.02507E-03    -2.19322E-03         1.00322    -333.620E-03         1.00110    -444.528E-06     284.123E-06         1.00102     172.007E-06     1.34380E-03     8.12182E-06
             891              0.              0.              0.              0.              0.              0.              0.              0.     660.270E-06     123.924E-06    -24.9909E-06     648.054E-06     100.081E-06     100.081E-06    -49.3028E-06    -49.7771E-06    -49.6943E-06    -49.3847E-06     100.080E-06     43.9733E-09     438.814E-09     15.8383E-09     100.081E-06     100.081E-06    -49.3028E-06    -49.7771E-06    -49.6943E-06    -49.3847E-06     100.080E-06     43.9733E-09     438.814E-09     15.8383E-09         1.00081         1.00092         1.00092     1.69940E-03    -1.47366E-03         1.00240    -333.716E-03         1.00080    -919.737E-06     1.15112E-03         1.00092     147.068E-06     1.46760E-03     52.9708E-06
             892              0.              0.              0.              0.              0.              0.              0.              0.     660.270E-06     123.924E-06     24.9909E-06     648.054E-06     100.081E-06     100.081E-06    -49.3028E-06    -49.7771E-06    -49.6943E-06    -49.3847E-06     100.080E-06    -43.9733E-09     438.814E-09    -15.8383E-09     100.081E-06     100.081E-06    -49.3028E-06    -49.7771E-06    -49.6943E-06    -49.3847E-06     100.080E-06    -43.9733E-09     438.814E-09    -15.8383E-09         1.00081         1.00092         1.00092     1.69940E-03    -1.47366E-03         1.00240    -333.716E-03         1.00080    -919.737E-06     1.15112E-03         1.00092    -147.068E-06     1.46760E-03    -52.9708E-06
             893              0.              0.              0.              0.              0.              0.              0.              0.     664.060E-06     123.900E-06     74.0345E-06     648.185E-06     100.111E-06     100.111E-06    -49.2398E-06    -49.8705E-06    -49.6090E-06    -49.5001E-06     100.110E-06    -51.4301E-09     401.795E-09    -2.42841E-09     100.111E-06     100.111E-06    -49.2398E-06    -49.8705E-06    -49.6090E-06    -49.5001E-06     100.110E-06    -51.4301E-09     401.795E-09    -2.42841E-09         1.00112         1.00103         1.00103     2.02507E-03    -2.19322E-03         1.00322    -333.620E-03         1.00110    -444.528E-06     284.123E-06         1.00102    -172.007E-06     1.34380E-03    -8.12182E-06
             894              0.              0.              0.              0.              0.              0.              0.              0.     670.985E-06     124.265E-06     124.265E-06     647.562E-06     100.329E-06     100.329E-06    -49.2946E-06    -50.0307E-06    -49.6603E-06    -49.6603E-06     100.324E-06    -731.415E-09     758.665E-09     758.665E-09     100.329E-06     100.329E-06    -49.2946E-06    -50.0307E-06    -49.6603E-06    -49.6603E-06     100.324E-06    -731.415E-09     758.665E-09     758.665E-09         1.00330         1.00345         1.00345     2.61839E-03    -2.30570E-03         1.00575    -334.586E-03         1.00327     172.182E-06     172.182E-06         1.00341    -2.44620E-03     2.53734E-03     2.53734E-03
             895              0.              0.              0.              0.              0.              0.              0.              0.     576.100E-06     123.215E-06    -123.215E-06     549.116E-06     99.4534E-06     99.4534E-06    -48.7159E-06    -49.7460E-06    -49.2223E-06    -49.2223E-06     99.4360E-06    -1.04750E-06    -1.44634E-06     1.44634E-06     99.4534E-06     99.4534E-06    -48.7159E-06    -49.7460E-06    -49.2223E-06    -49.2223E-06     99.4360E-06    -1.04750E-06    -1.44634E-06     1.44634E-06     994.562E-03     993.512E-03     993.512E-03     2.41338E-03    -4.47731E-03     997.989E-03    -330.483E-03     994.508E-03    -973.964E-06    -973.964E-06     993.396E-03    -3.50335E-03    -4.83725E-03     4.83725E-03
             896              0.              0.              0.              0.              0.              0.              0.              0.     567.135E-06     123.738E-06    -74.8806E-06     548.383E-06     99.8385E-06     99.8385E-06    -48.8785E-06    -49.9644E-06    -49.2642E-06    -49.5751E-06     99.8349E-06     20.0456E-09    -952.004E-09     478.982E-09     99.8385E-06     99.8385E-06    -48.8785E-06    -49.9644E-06    -49.2642E-06    -49.5751E-06     99.8349E-06     20.0456E-09    -952.004E-09     478.982E-09     998.415E-03     997.457E-03     997.457E-03     2.69495E-03    -4.56872E-03         1.00203    -331.861E-03     998.351E-03     114.929E-06    -1.96486E-03     997.433E-03     67.0421E-06    -3.18396E-03     1.60195E-03
             897              0.              0.              0.              0.              0.              0.              0.              0.     562.850E-06     123.554E-06    -24.4981E-06     548.575E-06     100.245E-06     100.245E-06    -49.2422E-06    -50.0076E-06    -49.2445E-06    -50.0014E-06     100.241E-06     47.5316E-09    -900.727E-09     285.045E-09     100.245E-06     100.245E-06    -49.2422E-06    -50.0076E-06    -49.2445E-06    -50.0014E-06     100.241E-06     47.5316E-09    -900.727E-09     285.045E-09         1.00249     999.889E-03     999.889E-03    -22.4145E-06    -5.14226E-03         1.00503    -331.575E-03         1.00244    -37.5116E-06    -5.10034E-03     999.862E-03     158.968E-06    -3.01247E-03     953.327E-06
             898              0.              0.              0.              0.              0.              0.              0.              0.     562.850E-06     123.554E-06     24.4981E-06     548.575E-06     100.245E-06     100.245E-06    -49.2422E-06    -50.0076E-06    -49.2445E-06    -50.0014E-06     100.241E-06    -47.5316E-09    -900.727E-09    -285.045E-09     100.245E-06     100.245E-06    -49.2422E-06    -50.0076E-06    -49.2445E-06    -50.0014E-06     100.241E-06    -47.5316E-09    -900.727E-09    -285.045E-09         1.00249     999.889E-03     999.889E-03    -22.4145E-06    -5.14226E-03         1.00503    -331.575E-03         1.00244    -37.5116E-06    -5.10034E-03     999.862E-03    -158.968E-06    -3.01247E-03    -953.327E-06
             899              0.              0.              0.              0.              0.              0.              0.              0.     567.135E-06     123.738E-06     74.8806E-06     548.383E-06     99.8385E-06     99.8385E-06    -48.8785E-06    -49.9644E-06    -49.2642E-06    -49.5751E-06     99.8349E-06    -20.0456E-09    -952.004E-09    -478.982E-09     99.8385E-06     99.8385E-06    -48.8785E-06    -49.9644E-06    -49.2642E-06    -49.5751E-06     99.8349E-06    -20.0456E-09    -952.004E-09    -478.982E-09     998.415E-03     997.457E-03     997.457E-03     2.69495E-03    -4.56872E-03         1.00203    -331.861E-03     998.351E-03     114.929E-06    -1.96486E-03     997.433E-03    -67.0421E-06    -3.18396E-03    -1.60195E-03
             900              0.              0.              0.              0.              0.              0.              0.              0.     576.100E-06     123.215E-06     123.215E-06     549.116E-06     99.4534E-06     99.4534E-06    -48.7159E-06    -49.7460E-06    -49.2223E-06    -49.2223E-06     99.4360E-06     1.04750E-06    -1.44634E-06    -1.44634E-06     99.4534E-06     99.4534E-06    -48.7159E-06    -49.7460E-06    -49.2223E-06    -49.2223E-06     99.4360E-06     1.04750E-06    -1.44634E-06    -1.44634E-06     994.562E-03     993.512E-03     993.512E-03     2.41338E-03    -4.47731E-03     997.989E-03    -330.483E-03     994.508E-03    -973.964E-06    -973.964E-06     993.396E-03     3.50335E-03    -4.83725E-03    -4.83725E-03
             901              0.              0.              0.              0.              0.              0.              0.              0.     480.967E-06     125.692E-06    -125.692E-06     446.914E-06     99.6495E-06     99.6495E-06    -48.4052E-06    -50.2460E-06    -49.3083E-06    -49.3083E-06     99.6149E-06     1.80623E-06     1.49743E-06    -1.49743E-06     99.6495E-06     99.6495E-06    -48.4052E-06    -50.2460E-06    -49.3083E-06    -49.3083E-06     99.6149E-06     1.80623E-06     1.49743E-06    -1.49743E-06     996.547E-03     997.099E-03     997.099E-03     6.76649E-03    -5.54704E-03         1.00265    -332.773E-03     996.375E-03     725.579E-06     725.579E-06     996.867E-03     6.04091E-03     5.00812E-03    -5.00812E-03
             902              0.              0.              0.              0.              0.              0.              0.              0.     471.055E-06     124.789E-06    -74.4518E-06     448.082E-06     99.7571E-06     99.7571E-06    -48.6861E-06    -50.0793E-06    -49.4742E-06    -49.2781E-06     99.7441E-06     216.472E-09     973.573E-09     1.29110E-06     99.7571E-06     99.7571E-06    -48.6861E-06    -50.0793E-06    -49.4742E-06    -49.2781E-06     99.7441E-06     216.472E-09     973.573E-09     1.29110E-06     997.623E-03     995.656E-03     995.656E-03     2.72515E-03    -6.59372E-03         1.00225    -330.596E-03     997.525E-03    -2.54633E-03    -1.23495E-03     995.569E-03     723.988E-06     3.25610E-03     4.31805E-03
             903              0.              0.              0.              0.              0.              0.              0.              0.     464.791E-06     124.915E-06    -25.7535E-06     446.949E-06     100.529E-06     100.529E-06    -49.0648E-06    -50.4694E-06    -49.8675E-06    -49.6615E-06     100.523E-06    -39.5885E-09     656.268E-09     824.613E-09     100.529E-06     100.529E-06    -49.0648E-06    -50.4694E-06    -49.8675E-06    -49.6615E-06     100.523E-06    -39.5885E-09     656.268E-09     824.613E-09         1.00536         1.00167         1.00167     1.04058E-03    -8.35453E-03         1.01002    -331.450E-03         1.00525    -4.32822E-03    -2.95063E-03         1.00163    -132.403E-06     2.19488E-03     2.75790E-03
             904              0.              0.              0.              0.              0.              0.              0.              0.     464.791E-06     124.915E-06     25.7535E-06     446.949E-06     100.529E-06     100.529E-06    -49.0648E-06    -50.4694E-06    -49.8675E-06    -49.6615E-06     100.523E-06     39.5885E-09     656.268E-09    -824.613E-09     100.529E-06     100.529E-06    -49.0648E-06    -50.4694E-06    -49.8675E-06    -49.6615E-06     100.523E-06     39.5885E-09     656.268E-09    -824.613E-09         1.00536         1.00167         1.00167     1.04058E-03    -8.35453E-03         1.01002    -331.450E-03         1.00525    -4.32822E-03    -2.95063E-03         1.00163     132.403E-06     2.19488E-03    -2.75790E-03
             905              0.              0.              0.              0.              0.              0.              0.              0.     471.055E-06     124.789E-06     74.4518E-06     448.082E-06     99.7571E-06     99.7571E-06    -48.6861E-06    -50.0793E-06    -49.4742E-06    -49.2781E-06     99.7441E-06    -216.472E-09     973.573E-09    -1.29110E-06     99.7571E-06     99.7571E-06    -48.6861E-06    -50.0793E-06    -49.4742E-06    -49.2781E-06     99.7441E-06    -216.472E-09     973.573E-09    -1.29110E-06     997.623E-03     995.656E-03     995.656E-03     2.72515E-03    -6.59372E-03         1.00225    -330.596E-03     997.525E-03    -2.54633E-03    -1.23495E-03     995.569E-03    -723.988E-06     3.25610E-03    -4.31805E-03
             906              0.              0.              0.              0.              0.              0.              0.              0.     480.967E-06     125.692E-06     125.692E-06     446.914E-06     99.6495E-06     99.6495E-06    -48.4052E-06    -50.2460E-06    -49.3083E-06    -49.3083E-06     99.6149E-06    -1.80623E-06     1.49743E-06     1.49743E-06     99.6495E-06     99.6495E-06    -48.4052E-06    -50.2460E-06    -49.3083E-06    -49.3083E-06     99.6149E-06    -1.80623E-06     1.49743E-06     1.49743E-06     996.547E-03     997.099E-03     997.099E-03     6.76649E-03    -5.54704E-03         1.00265    -332.773E-03     996.375E-03     725.579E-06     725.579E-06     996.867E-03    -6.04091E-03     5.00812E-03     5.00812E-03
             907              0.              0.              0.              0.              0.              0.              0.              0.     393.926E-06     122.555E-06    -122.555E-06     353.749E-06     94.8973E-06     94.8973E-06    -45.5020E-06    -48.4554E-06    -46.9014E-06    -46.9014E-06     94.7427E-06    -3.10798E-06    -4.88047E-06     4.88047E-06     94.8973E-06     94.8973E-06    -45.5020E-06    -48.4554E-06    -46.9014E-06    -46.9014E-06     94.7427E-06    -3.10798E-06    -4.88047E-06     4.88047E-06     949.158E-03     945.980E-03     945.980E-03     6.85419E-03    -12.9008E-03     958.881E-03    -313.311E-03     948.693E-03    -2.50618E-03    -2.50618E-03     944.946E-03    -10.3946E-03    -16.3227E-03     16.3227E-03
             908              0.              0.              0.              0.              0.              0.              0.              0.     379.608E-06     124.109E-06    -77.4980E-06     350.276E-06     97.7504E-06     97.7504E-06    -46.4573E-06    -50.3353E-06    -47.4371E-06    -49.2857E-06     97.6806E-06    -698.686E-09    -4.37036E-06     3.51588E-06     97.7504E-06     97.7504E-06    -46.4573E-06    -50.3353E-06    -47.4371E-06    -49.2857E-06     97.6806E-06    -698.686E-09    -4.37036E-06     3.51588E-06     977.873E-03     970.983E-03     970.983E-03     6.38220E-03    -19.5572E-03     990.540E-03    -319.269E-03     976.964E-03    -171.460E-06    -12.5365E-03     970.516E-03    -2.33674E-03    -14.6166E-03     11.7588E-03
             909              0.              0.              0.              0.              0.              0.              0.              0.     370.856E-06     124.573E-06    -25.0149E-06     348.411E-06     100.625E-06     100.625E-06    -47.7448E-06    -51.9150E-06    -47.6996E-06    -51.8978E-06     100.562E-06    -55.1309E-09    -4.75960E-06     2.07147E-06     100.625E-06     100.625E-06    -47.7448E-06    -51.9150E-06    -47.6996E-06    -51.8978E-06     100.562E-06    -55.1309E-09    -4.75960E-06     2.07147E-06         1.00670     992.514E-03     992.514E-03     76.7274E-06    -27.8174E-03         1.02033    -321.591E-03         1.00575     378.874E-06    -27.7026E-03     992.097E-03    -184.384E-06    -15.9184E-03     6.92800E-03
             910              0.              0.              0.              0.              0.              0.              0.              0.     370.856E-06     124.573E-06     25.0149E-06     348.411E-06     100.625E-06     100.625E-06    -47.7448E-06    -51.9150E-06    -47.6996E-06    -51.8978E-06     100.562E-06     55.1309E-09    -4.75960E-06    -2.07147E-06     100.625E-06     100.625E-06    -47.7448E-06    -51.9150E-06    -47.6996E-06    -51.8978E-06     100.562E-06     55.1309E-09    -4.75960E-06    -2.07147E-06         1.00670     992.514E-03     992.514E-03     76.7274E-06    -27.8174E-03         1.02033    -321.591E-03         1.00575     378.874E-06    -27.7026E-03     992.097E-03     184.384E-06    -15.9184E-03    -6.92800E-03
             911              0.              0.              0.              0.              0.              0.              0.              0.     379.608E-06     124.109E-06     77.4980E-06     350.276E-06     97.7504E-06     97.7504E-06    -46.4573E-06    -50.3353E-06    -47.4371E-06    -49.2857E-06     97.6806E-06     698.686E-09    -4.37036E-06    -3.51588E-06     97.7504E-06     97.7504E-06    -46.4573E-06    -50.3353E-06    -47.4371E-06    -49.2857E-06     97.6806E-06     698.686E-09    -4.37036E-06    -3.51588E-06     977.873E-03     970.983E-03     970.983E-03     6.38220E-03    -19.5572E-03     990.540E-03    -319.269E-03     976.964E-03    -171.460E-06    -12.5365E-03     970.516E-03     2.33674E-03    -14.6166E-03    -11.7588E-03
             912              0.              0.              0.              0.              0.              0.              0.              0.     393.926E-06     122.555E-06     122.555E-06     353.749E-06     94.8973E-06     94.8973E-06    -45.5020E-06    -48.4554E-06    -46.9014E-06    -46.9014E-06     94.7427E-06     3.10798E-06    -4.88047E-06    -4.88047E-06     94.8973E-06     94.8973E-06    -45.5020E-06    -48.4554E-06    -46.9014E-06    -46.9014E-06     94.7427E-06     3.10798E-06    -4.88047E-06    -4.88047E-06     949.158E-03     945.980E-03     945.980E-03     6.85419E-03    -12.9008E-03     958.881E-03    -313.311E-03     948.693E-03    -2.50618E-03    -2.50618E-03     944.946E-03     10.3946E-03    -16.3227E-03    -16.3227E-03
             913              0.              0.              0.              0.              0.              0.              0.              0.     312.109E-06     128.507E-06    -128.507E-06     253.740E-06     92.8716E-06     92.8716E-06    -44.4066E-06    -47.5128E-06    -45.6851E-06    -45.6851E-06     92.3223E-06     2.55685E-06     3.48317E-06    -3.48317E-06     92.8716E-06     92.8716E-06    -44.4066E-06    -47.5128E-06    -45.6851E-06    -45.6851E-06     92.3223E-06     2.55685E-06     3.48317E-06    -3.48317E-06     928.820E-03     936.491E-03     936.491E-03     18.2422E-03    -2.53489E-03     939.026E-03    -317.400E-03     928.274E-03     9.69091E-03     9.69091E-03     932.817E-03     8.55132E-03     11.6494E-03    -11.6494E-03
             914              0.              0.              0.              0.              0.              0.              0.              0.     292.117E-06     127.229E-06    -76.1449E-06     251.689E-06     95.9658E-06     95.9658E-06    -46.1501E-06    -48.8662E-06    -47.6656E-06    -47.1727E-06     95.7878E-06    -757.992E-09     3.02488E-06     5.38974E-06     95.9658E-06     95.9658E-06    -46.1501E-06    -48.8662E-06    -47.6656E-06    -47.1727E-06     95.7878E-06    -757.992E-09     3.02488E-06     5.38974E-06     959.839E-03     956.281E-03     956.281E-03     5.67271E-03    -12.4952E-03     968.776E-03    -316.486E-03     959.399E-03    -4.46456E-03    -1.16746E-03     955.090E-03    -2.53509E-03     10.1167E-03     18.0259E-03
             915              0.              0.              0.              0.              0.              0.              0.              0.     278.046E-06     129.318E-06    -28.0306E-06     244.542E-06     99.3212E-06     99.3212E-06    -46.9995E-06    -51.3525E-06    -48.4841E-06    -49.7686E-06     99.2220E-06    -1.27174E-06    -315.418E-09     3.36594E-06     99.3212E-06     99.3212E-06    -46.9995E-06    -51.3525E-06    -48.4841E-06    -49.7686E-06     99.2220E-06    -1.27174E-06    -315.418E-09     3.36594E-06     993.625E-03     985.282E-03     985.282E-03     6.54857E-03    -22.5687E-03         1.00785    -323.087E-03     992.626E-03    -3.38235E-03    -11.9738E-03     984.618E-03    -4.25331E-03    -1.05491E-03     11.2573E-03
             916              0.              0.              0.              0.              0.              0.              0.              0.     278.046E-06     129.318E-06     28.0306E-06     244.542E-06     99.3212E-06     99.3212E-06    -46.9995E-06    -51.3525E-06    -48.4841E-06    -49.7686E-06     99.2220E-06     1.27174E-06    -315.418E-09    -3.36594E-06     99.3212E-06     99.3212E-06    -46.9995E-06    -51.3525E-06    -48.4841E-06    -49.7686E-06     99.2220E-06     1.27174E-06    -315.418E-09    -3.36594E-06     993.625E-03     985.282E-03     985.282E-03     6.54857E-03    -22.5687E-03         1.00785    -323.087E-03     992.626E-03    -3.38235E-03    -11.9738E-03     984.618E-03     4.25331E-03    -1.05491E-03    -11.2573E-03
             917              0.              0.              0.              0.              0.              0.              0.              0.     292.117E-06     127.229E-06     76.1449E-06     251.689E-06     95.9658E-06     95.9658E-06    -46.1501E-06    -48.8662E-06    -47.6656E-06    -47.1727E-06     95.7878E-06     757.992E-09     3.02488E-06    -5.38974E-06     95.9658E-06     95.9658E-06    -46.1501E-06    -48.8662E-06    -47.6656E-06    -47.1727E-06     95.7878E-06     757.992E-09     3.02488E-06    -5.38974E-06     959.839E-03     956.281E-03     956.281E-03     5.67271E-03    -12.4952E-03     968.776E-03    -316.486E-03     959.399E-03    -4.46456E-03    -1.16746E-03     955.090E-03     2.53509E-03     10.1167E-03    -18.0259E-03
             918              0.              0.              0.              0.              0.              0.              0.              0.     312.109E-06     128.507E-06     128.507E-06     253.740E-06     92.8716E-06     92.8716E-06    -44.4066E-06    -47.5128E-06    -45.6851E-06    -45.6851E-06     92.3223E-06    -2.55685E-06     3.48317E-06     3.48317E-06     92.8716E-06     92.8716E-06    -44.4066E-06    -47.5128E-06    -45.6851E-06    -45.6851E-06     92.3223E-06    -2.55685E-06     3.48317E-06     3.48317E-06     928.820E-03     936.491E-03     936.491E-03     18.2422E-03    -2.53489E-03     939.026E-03    -317.400E-03     928.274E-03     9.69091E-03     9.69091E-03     932.817E-03    -8.55132E-03     11.6494E-03     11.6494E-03
             919              0.              0.              0.              0.              0.              0.              0.              0.     241.143E-06     111.487E-06    -111.487E-06     182.459E-06     77.1312E-06     77.1312E-06    -33.9065E-06    -42.4508E-06    -37.7176E-06    -37.7176E-06     76.2090E-06    -9.46654E-06    -10.8734E-06     10.8734E-06     77.1312E-06     77.1312E-06    -33.9065E-06    -42.4508E-06    -37.7176E-06    -37.7176E-06     76.2090E-06    -9.46654E-06    -10.8734E-06     10.8734E-06     772.959E-03     772.174E-03     772.174E-03     29.4467E-03    -27.7062E-03     799.880E-03    -257.971E-03     767.971E-03     3.95446E-03     3.95446E-03     766.005E-03    -31.6607E-03    -36.3659E-03     36.3659E-03
             920              0.              0.              0.              0.              0.              0.              0.              0.     216.634E-06     116.220E-06    -79.0796E-06     164.832E-06     89.7273E-06     89.7273E-06    -37.8197E-06    -51.0472E-06    -40.6521E-06    -47.3903E-06     88.9028E-06    -6.75306E-06    -12.9398E-06     1.99279E-06     89.7273E-06     89.7273E-06    -37.8197E-06    -51.0472E-06    -40.6521E-06    -47.3903E-06     88.9028E-06    -6.75306E-06    -12.9398E-06     1.99279E-06     901.345E-03     885.073E-03     885.073E-03     31.9156E-03    -56.5624E-03     941.635E-03    -286.809E-03     889.359E-03     12.9701E-03    -32.1018E-03     879.558E-03    -22.5855E-03    -43.2769E-03     6.66485E-03
             921              0.              0.              0.              0.              0.              0.              0.              0.     199.786E-06     124.122E-06    -24.5998E-06     154.605E-06     91.4259E-06     91.4259E-06    -38.8842E-06    -51.6078E-06    -38.8649E-06    -51.1551E-06     90.9538E-06    -3.23338E-06    -14.5747E-06    -567.528E-09     91.4259E-06     91.4259E-06    -38.8842E-06    -51.6078E-06    -38.8649E-06    -51.1551E-06     90.9538E-06    -3.23338E-06    -14.5747E-06    -567.528E-09     917.356E-03     920.755E-03     920.755E-03     49.1161E-03    -35.9912E-03     956.747E-03    -311.293E-03     907.798E-03     49.2456E-03    -32.9633E-03     917.598E-03    -10.8140E-03    -48.7447E-03    -1.89809E-03
             922              0.              0.              0.              0.              0.              0.              0.              0.     199.786E-06     124.122E-06     24.5998E-06     154.605E-06     91.4259E-06     91.4259E-06    -38.8842E-06    -51.6078E-06    -38.8649E-06    -51.1551E-06     90.9538E-06     3.23338E-06    -14.5747E-06     567.528E-09     91.4259E-06     91.4259E-06    -38.8842E-06    -51.6078E-06    -38.8649E-06    -51.1551E-06     90.9538E-06     3.23338E-06    -14.5747E-06     567.528E-09     917.356E-03     920.755E-03     920.755E-03     49.1161E-03    -35.9912E-03     956.747E-03    -311.293E-03     907.798E-03     49.2456E-03    -32.9633E-03     917.598E-03     10.8140E-03    -48.7447E-03     1.89809E-03
             923              0.              0.              0.              0.              0.              0.              0.              0.     216.634E-06     116.220E-06     79.0796E-06     164.832E-06     89.7273E-06     89.7273E-06    -37.8197E-06    -51.0472E-06    -40.6521E-06    -47.3903E-06     88.9028E-06     6.75306E-06    -12.9398E-06    -1.99279E-06     89.7273E-06     89.7273E-06    -37.8197E-06    -51.0472E-06    -40.6521E-06    -47.3903E-06     88.9028E-06     6.75306E-06    -12.9398E-06    -1.99279E-06     901.345E-03     885.073E-03     885.073E-03     31.9156E-03    -56.5624E-03     941.635E-03    -286.809E-03     889.359E-03     12.9701E-03    -32.1018E-03     879.558E-03     22.5855E-03    -43.2769E-03    -6.66485E-03
             924              0.              0.              0.              0.              0.              0.              0.              0.     241.143E-06     111.487E-06     111.487E-06     182.459E-06     77.1312E-06     77.1312E-06    -33.9065E-06    -42.4508E-06    -37.7176E-06    -37.7176E-06     76.2090E-06     9.46654E-06    -10.8734E-06    -10.8734E-06     77.1312E-06     77.1312E-06    -33.9065E-06    -42.4508E-06    -37.7176E-06    -37.7176E-06     76.2090E-06     9.46654E-06    -10.8734E-06    -10.8734E-06     772.959E-03     772.174E-03     772.174E-03     29.4467E-03    -27.7062E-03     799.880E-03    -257.971E-03     767.971E-03     3.95446E-03     3.95446E-03     766.005E-03     31.6607E-03    -36.3659E-03    -36.3659E-03
             925              0.              0.              0.              0.              0.              0.              0.              0.     186.216E-06     115.000E-06    -115.000E-06     90.7012E-06     116.073E-06     116.073E-06    -52.1645E-06    -62.5787E-06    -50.8743E-06    -50.8743E-06     103.078E-06    -5.42485E-06     31.0320E-06    -31.0320E-06     116.073E-06     116.073E-06    -52.1645E-06    -62.5787E-06    -50.8743E-06    -50.8743E-06     103.078E-06    -5.42485E-06     31.0320E-06    -31.0320E-06         1.16238         1.21663         1.21663     91.2928E-03     21.6326E-03         1.19499    -443.184E-03         1.15570     99.9234E-03     99.9234E-03         1.12970    -18.1433E-03     103.786E-03    -103.786E-03
             926              0.              0.              0.              0.              0.              0.              0.              0.     144.719E-06     117.712E-06    -52.2767E-06     65.9898E-06     103.209E-06     103.209E-06    -39.4514E-06    -62.3625E-06    -53.8691E-06    -38.1586E-06     93.4226E-06    -4.25267E-06     33.3020E-06    -26.1910E-06     103.209E-06     103.209E-06    -39.4514E-06    -62.3625E-06    -53.8691E-06    -38.1586E-06     93.4226E-06    -4.25267E-06     33.3020E-06    -26.1910E-06         1.04266         1.15225         1.15225     197.995E-03     44.7433E-03         1.10750    -464.994E-03         1.00592     101.556E-03     206.643E-03         1.08678    -14.2230E-03     111.378E-03    -87.5955E-03
             927              0.              0.              0.              0.              0.              0.              0.              0.     139.114E-06     122.386E-06    -16.6690E-06     64.0037E-06     94.2537E-06     94.2537E-06    -26.6193E-06    -66.1659E-06    -57.5103E-06    -26.3983E-06     85.3771E-06    -2.03032E-06     37.1433E-06    -11.3069E-06     94.2537E-06     94.2537E-06    -26.6193E-06    -66.1659E-06    -57.5103E-06    -26.3983E-06     85.3771E-06    -2.03032E-06     37.1433E-06    -11.3069E-06     969.310E-03         1.11668         1.11668     308.169E-03     43.6434E-03         1.07304    -489.499E-03     877.944E-03     101.541E-03     309.647E-03         1.05731    -6.79036E-03     124.225E-03    -37.8157E-03
             928              0.              0.              0.              0.              0.              0.              0.              0.     139.114E-06     122.386E-06     16.6690E-06     64.0037E-06     94.2537E-06     94.2537E-06    -26.6193E-06    -66.1659E-06    -57.5103E-06    -26.3983E-06     85.3771E-06     2.03032E-06     37.1433E-06     11.3069E-06     94.2537E-06     94.2537E-06    -26.6193E-06    -66.1659E-06    -57.5103E-06    -26.3983E-06     85.3771E-06     2.03032E-06     37.1433E-06     11.3069E-06     969.310E-03         1.11668         1.11668     308.169E-03     43.6434E-03         1.07304    -489.499E-03     877.944E-03     101.541E-03     309.647E-03         1.05731     6.79036E-03     124.225E-03     37.8157E-03
             929              0.              0.              0.              0.              0.              0.              0.              0.     144.719E-06     117.712E-06     52.2767E-06     65.9898E-06     103.209E-06     103.209E-06    -39.4514E-06    -62.3625E-06    -53.8691E-06    -38.1586E-06     93.4226E-06     4.25267E-06     33.3020E-06     26.1910E-06     103.209E-06     103.209E-06    -39.4514E-06    -62.3625E-06    -53.8691E-06    -38.1586E-06     93.4226E-06     4.25267E-06     33.3020E-06     26.1910E-06         1.04266         1.15225         1.15225     197.995E-03     44.7433E-03         1.10750    -464.994E-03         1.00592     101.556E-03     206.643E-03         1.08678     14.2230E-03     111.378E-03     87.5955E-03
             930              0.              0.              0.              0.              0.              0.              0.              0.     186.216E-06     115.000E-06     115.000E-06     90.7012E-06     116.073E-06     116.073E-06    -52.1645E-06    -62.5787E-06    -50.8743E-06    -50.8743E-06     103.078E-06     5.42485E-06     31.0320E-06     31.0320E-06     116.073E-06     116.073E-06    -52.1645E-06    -62.5787E-06    -50.8743E-06    -50.8743E-06     103.078E-06     5.42485E-06     31.0320E-06     31.0320E-06         1.16238         1.21663         1.21663     91.2928E-03     21.6326E-03         1.19499    -443.184E-03         1.15570     99.9234E-03     99.9234E-03         1.12970     18.1433E-03     103.786E-03     103.786E-03
             931     510.729E-03    -199.628E-03     199.628E-03    -425.607E-03     510.729E-03    -199.628E-03     199.628E-03    -425.607E-03              0.     199.628E-39    -199.628E-39     425.607E-39     108.947E-06     108.947E-06    -29.5116E-06    -77.2692E-06    -29.5116E-06    -29.5116E-06     61.1896E-06     21.3876E-21     115.000E-06    -115.000E-06     108.947E-06     108.947E-06    -29.5116E-06    -77.2692E-06    -29.5116E-06    -29.5116E-06     61.1896E-06     21.3876E-21     115.000E-06    -115.000E-06         1.12056         1.44601         1.44601     519.862E-03     200.414E-03         1.24559    -722.095E-03         1.01024     519.862E-03     519.862E-03         1.12656     72.4789E-18     384.614E-03    -384.614E-03
             932     750.615E-03    -388.760E-03     84.5540E-03    -636.506E-03     750.615E-03    -388.760E-03     84.5540E-03    -636.506E-03              0.     388.760E-39    -84.5540E-39     636.506E-39     84.0405E-06     84.0405E-06    -21.3139E-06    -60.6786E-06    -21.3139E-06    -21.3139E-06     44.6758E-06    -5.83659E-21     117.712E-06    -52.2767E-06     84.0405E-06     84.0405E-06    -21.3139E-06    -60.6786E-06    -21.3139E-06    -21.3139E-06     44.6758E-06    -5.83659E-21     117.712E-06    -52.2767E-06     866.895E-03         1.24024         1.24024     535.527E-03     272.218E-03     968.021E-03    -682.661E-03     768.898E-03     535.527E-03     535.527E-03     976.930E-03    -18.2688E-18     393.686E-03    -174.839E-03
             933     751.097E-03    -398.310E-03     56.0420E-03    -634.315E-03     751.097E-03    -398.310E-03     56.0420E-03    -634.315E-03              0.     398.310E-39    -56.0420E-39     634.315E-39     80.9186E-06     80.9186E-06    -20.6402E-06    -58.1952E-06    -20.6402E-06    -20.6402E-06     43.3635E-06    -1.57123E-21     122.386E-06    -16.6690E-06     80.9186E-06     80.9186E-06    -20.6402E-06    -58.1952E-06    -20.6402E-06    -20.6402E-06     43.3635E-06    -1.57123E-21     122.386E-06    -16.6690E-06     833.806E-03         1.23102         1.23102     551.697E-03     300.492E-03     930.527E-03    -694.403E-03     741.218E-03     551.697E-03     551.697E-03     979.815E-03    -4.52485E-18     409.318E-03    -55.7490E-03
             934     751.097E-03    -398.310E-03    -56.0420E-03    -634.315E-03     751.097E-03    -398.310E-03    -56.0420E-03    -634.315E-03              0.     398.310E-39     56.0420E-39     634.315E-39     80.9186E-06     80.9186E-06    -20.6402E-06    -58.1952E-06    -20.6402E-06    -20.6402E-06     43.3635E-06    -2.34919E-21     122.386E-06     16.6690E-06     80.9186E-06     80.9186E-06    -20.6402E-06    -58.1952E-06    -20.6402E-06    -20.6402E-06     43.3635E-06    -2.34919E-21     122.386E-06     16.6690E-06     833.806E-03         1.23102         1.23102     551.697E-03     300.492E-03     930.527E-03    -694.403E-03     741.218E-03     551.697E-03     551.697E-03     979.815E-03    -8.89723E-18     409.318E-03     55.7490E-03
             935     750.615E-03    -388.760E-03    -84.5540E-03    -636.506E-03     750.615E-03    -388.760E-03    -84.5540E-03    -636.506E-03              0.     388.760E-39     84.5540E-39     636.506E-39     84.0405E-06     84.0405E-06    -21.3139E-06    -60.6786E-06    -21.3139E-06    -21.3139E-06     44.6758E-06    -251.463E-24     117.712E-06     52.2767E-06     84.0405E-06     84.0405E-06    -21.3139E-06    -60.6786E-06    -21.3139E-06    -21.3139E-06     44.6758E-06    -251.463E-24     117.712E-06     52.2767E-06     866.895E-03         1.24024         1.24024     535.527E-03     272.218E-03     968.021E-03    -682.661E-03     768.898E-03     535.527E-03     535.527E-03     976.930E-03    -1.32815E-18     393.686E-03     174.839E-03
             936     510.729E-03    -199.628E-03    -199.628E-03    -425.607E-03     510.729E-03    -199.628E-03    -199.628E-03    -425.607E-03              0.     199.628E-39     199.628E-39     425.607E-39     108.947E-06     108.947E-06    -29.5116E-06    -77.2692E-06    -29.5116E-06    -29.5116E-06     61.1896E-06     3.91753E-21     115.000E-06     115.000E-06     108.947E-06     108.947E-06    -29.5116E-06    -77.2692E-06    -29.5116E-06    -29.5116E-06     61.1896E-06     3.91753E-21     115.000E-06     115.000E-06         1.12056         1.44601         1.44601     519.862E-03     200.414E-03         1.24559    -722.095E-03         1.01024     519.862E-03     519.862E-03         1.12656     12.1431E-18     384.614E-03     384.614E-03


  Minimum                     0.    -398.310E-03    -398.310E-03    -828.390E-03              0.    -398.310E-03    -398.310E-03    -828.390E-03              0.    -129.318E-06    -129.318E-06     425.607E-39     29.9423E-06     29.9423E-06    -52.1645E-06    -77.2692E-06    -57.5103E-06    -57.5103E-06     26.1446E-06    -9.46654E-06    -122.386E-06    -122.386E-06     29.9423E-06     29.9423E-06    -52.1645E-06    -77.2692E-06    -57.5103E-06    -57.5103E-06     26.1446E-06    -9.46654E-06    -122.386E-06    -122.386E-06     294.346E-03     772.174E-03     772.174E-03    -15.0766E-03    -56.5624E-03     306.224E-03    -722.095E-03     291.865E-03    -32.9633E-03    -32.9633E-03     766.005E-03    -31.6607E-03    -409.318E-03    -409.318E-03
         At Node             930             934             624             779             930             934             624             779             936             136             601             936             622             622             930             936             928             618             622             919             154             619             622             622             930             936             928             618             622             919             154             619             622             924             924             598             923             622             936             622             612             922             924             919             154             619

  Maximum            861.742E-03     398.310E-03     398.310E-03              0.     861.742E-03     398.310E-03     398.310E-03              0.     2.45459E-03     129.318E-06     129.318E-06     2.44834E-03     116.073E-06     116.073E-06    -12.0405E-06    -15.8382E-06    -12.0405E-06    -12.0405E-06     109.368E-06     9.46654E-06     122.386E-06     122.386E-06     116.073E-06     116.073E-06    -12.0405E-06    -15.8382E-06    -12.0405E-06    -12.0405E-06     109.368E-06     9.46654E-06     122.386E-06     122.386E-06         1.16238         1.44601         1.44601     602.705E-03     577.303E-03         1.24559    -257.971E-03         1.15570     602.705E-03     602.705E-03         1.12970     31.6607E-03     409.318E-03     409.318E-03
         At Node             779             154             619             930             779             154             619             930             786             916             606             785             930             930             622             622             622             622             604             924             934             624             930             930             622             622             622             622             604             924             934             624             930             936             936             622             622             936             924             930             622             622             930             924             934             624

           Total         27.6171              0.              0.        -25.0000         27.6171              0.              0.        -25.0000         1.13376    -3.63798E-12              0.         1.12384     91.9476E-03     91.9476E-03    -44.1863E-03    -46.7726E-03    -44.8173E-03    -44.8173E-03     90.6233E-03    -7.24065E-15    -13.3027E-15    -4.93247E-15     91.9476E-03     91.9476E-03    -44.1863E-03    -46.7726E-03    -44.8173E-03    -44.8173E-03     90.6233E-03    -7.24065E-15    -13.3027E-15    -4.93247E-15         920.582         942.400         942.400         31.8055         14.5061         927.894        -329.571         916.343         27.5847         27.5847         933.542    -2.57186E-12    -285.755E-12    -129.430E-12


