********************************************************************************
Field Output Report, written Mon Jan 29 07:13:51 2024

Source 1
---------

   ODB: C:/abaqusTemp/Job-1r.odb
   Step: Step-1
   Frame: Increment      1: Step Time =    1.000

Loc 1 : Nodal values from source 1

Output sorted by column "Node Label".

Field Output reported at nodes for part: PART-1-1
   Computation algorithm: EXTRAPOLATE_COMPUTE_AVERAGE
   Averaged at nodes
   Averaging regions: ODB_REGIONS

      Node Label    RF.Magnitude          RF.RF1          RF.RF2          RF.RF3    TF.Magnitude          TF.TF1          TF.TF2          TF.TF3     U.Magnitude            U.U1            U.U2            U.U3     E.Max. Prin  E.Max. Prin(a)     E.Mid. Prin     E.Min. Prin           E.E11           E.E22           E.E33           E.E12           E.E13           E.E23         S.Mises     S.Max. Prin  S.Max. Prin(a)     S.Mid. Prin     S.Min. Prin        S.Tresca      S.Pressure     S.Third Inv           S.S11           S.S22           S.S33           S.S12           S.S13           S.S23
                          @Loc 1          @Loc 1          @Loc 1          @Loc 1          @Loc 1          @Loc 1          @Loc 1          @Loc 1          @Loc 1          @Loc 1          @Loc 1          @Loc 1          @Loc 1          @Loc 1          @Loc 1          @Loc 1          @Loc 1          @Loc 1          @Loc 1          @Loc 1          @Loc 1          @Loc 1          @Loc 1          @Loc 1          @Loc 1          @Loc 1          @Loc 1          @Loc 1          @Loc 1          @Loc 1          @Loc 1          @Loc 1          @Loc 1          @Loc 1          @Loc 1          @Loc 1
-----------------------------------------------------------------------------------------------------------------------------------------------------------------------------------------------------------------------------------------------------------------------------------------------------------------------------------------------------------------------------------------------------------------------------------------------------------------------------------------------------------------------------------------------------------------------------------------------------------------
               1              0.              0.              0.              0.              1.              0.              0.              1.     1.94669E-03    -107.345E-06    -107.345E-06     1.94076E-03     409.169E-06     409.169E-06    -202.411E-06    -202.689E-06    -202.411E-06    -202.411E-06     408.891E-06     7.13006E-18    -18.4190E-06    -18.4190E-06         4.09176         4.08399         4.08399    -6.84466E-03    -8.69993E-03         4.09269        -1.35615         4.09176    -6.84466E-03    -6.84466E-03         4.08214     23.8463E-15    -61.6019E-03    -61.6019E-03
               2              0.              0.              0.              0.              1.              0.              0.              1.     1.94669E-03    -107.345E-06     107.345E-06     1.94076E-03     409.169E-06     409.169E-06    -202.411E-06    -202.689E-06    -202.411E-06    -202.411E-06     408.891E-06    -31.5859E-18    -18.4190E-06     18.4190E-06         4.09176         4.08399         4.08399    -6.84466E-03    -8.69993E-03         4.09269        -1.35615         4.09176    -6.84466E-03    -6.84466E-03         4.08214    -105.638E-15    -61.6019E-03     61.6019E-03
               3              0.              0.              0.              0.              0.              0.              0.              0.     1.54926E-03    -88.9264E-06    -88.9264E-06     1.54415E-03     389.703E-06     389.703E-06    -192.675E-06    -193.110E-06    -192.675E-06    -192.675E-06     389.267E-06    -48.2593E-18     3.81447E-06     3.81447E-06         3.89696         3.90376         3.90376     8.26215E-03     5.35202E-03         3.89841        -1.30579         3.89696     8.26215E-03     8.26215E-03         3.90085    -161.402E-15     12.7574E-03     12.7574E-03
               4              0.              0.              0.              0.              0.              0.              0.              0.     1.54926E-03    -88.9264E-06     88.9264E-06     1.54415E-03     389.703E-06     389.703E-06    -192.675E-06    -193.110E-06    -192.675E-06    -192.675E-06     389.267E-06     6.20887E-18     3.81447E-06    -3.81447E-06         3.89696         3.90376         3.90376     8.26215E-03     5.35202E-03         3.89841        -1.30579         3.89696     8.26215E-03     8.26215E-03         3.90085     20.7655E-15     12.7574E-03    -12.7574E-03
               5              0.              0.              0.              0.              0.              0.              0.              0.     1.14419E-03    -114.974E-06    -114.974E-06     1.13258E-03     418.098E-06     418.098E-06    -206.444E-06    -207.523E-06    -206.444E-06    -206.444E-06     417.019E-06    -9.24036E-18    -9.20885E-06    -9.20885E-06         4.18115         4.16443         4.16443    -13.1017E-03    -20.3156E-03         4.18475        -1.37701         4.18113    -13.1017E-03    -13.1017E-03         4.15722    -30.9042E-15    -30.7988E-03    -30.7988E-03
               6              0.              0.              0.              0.              0.              0.              0.              0.     1.14419E-03    -114.974E-06     114.974E-06     1.13258E-03     418.098E-06     418.098E-06    -206.444E-06    -207.523E-06    -206.444E-06    -206.444E-06     417.019E-06     1.70421E-18    -9.20885E-06     9.20885E-06         4.18115         4.16443         4.16443    -13.1017E-03    -20.3156E-03         4.18475        -1.37701         4.18113    -13.1017E-03    -13.1017E-03         4.15722     5.69971E-15    -30.7988E-03     30.7988E-03
               7              0.              0.              0.              0.              0.              0.              0.              0.     763.658E-06    -70.5087E-06    -70.5087E-06     757.120E-06     373.379E-06     373.379E-06    -182.939E-06    -186.674E-06    -182.939E-06    -182.939E-06     369.645E-06    -35.3472E-18     18.4174E-06     18.4174E-06         3.73376         3.74456         3.74456     23.3679E-03    -1.61032E-03         3.74617        -1.25544         3.73354     23.3679E-03     23.3679E-03         3.71958    -118.218E-15     61.5968E-03     61.5968E-03
               8              0.              0.              0.              0.              0.              0.              0.              0.     763.658E-06    -70.5087E-06     70.5087E-06     757.120E-06     373.379E-06     373.379E-06    -182.939E-06    -186.674E-06    -182.939E-06    -182.939E-06     369.645E-06     28.4372E-18     18.4174E-06    -18.4174E-06         3.73376         3.74456         3.74456     23.3679E-03    -1.61032E-03         3.74617        -1.25544         3.73354     23.3679E-03     23.3679E-03         3.71958     95.1078E-15     61.5968E-03    -61.5968E-03
               9              0.              0.              0.              0.              0.              0.              0.              0.     376.630E-06    -151.809E-06    -151.809E-06     309.448E-06     467.576E-06     467.576E-06    -225.915E-06    -237.228E-06    -225.915E-06    -225.915E-06     456.263E-06    -29.7355E-18    -35.2543E-06    -35.2543E-06         4.67726         4.59543         4.59543    -43.3128E-03    -118.984E-03         4.71441        -1.47771         4.67521    -43.3128E-03    -43.3128E-03         4.51975    -99.4499E-15    -117.907E-03    -117.907E-03
              10              0.              0.              0.              0.              0.              0.              0.              0.     376.630E-06    -151.809E-06     151.809E-06     309.448E-06     467.576E-06     467.576E-06    -225.915E-06    -237.228E-06    -225.915E-06    -225.915E-06     456.263E-06     43.7688E-18    -35.2543E-06     35.2543E-06         4.67726         4.59543         4.59543    -43.3128E-03    -118.984E-03         4.71441        -1.47771         4.67521    -43.3128E-03    -43.3128E-03         4.51975     146.384E-15    -117.907E-03     117.907E-03
              11         1.08583     299.185E-03     299.185E-03             -1.         1.08583     299.185E-03     299.185E-03             -1.              0.    -299.185E-39    -299.185E-39     1.00000E-36     241.833E-06     241.833E-06    -101.206E-06    -134.797E-06    -101.206E-06    -101.206E-06     208.242E-06     112.555E-21    -151.809E-06    -151.809E-06         2.41477         3.54772         3.54772         1.25315         1.02846         2.51926        -1.94311         2.39108         1.25315         1.25315         3.32304     376.437E-18    -507.723E-03    -507.723E-03
              12         1.08583     299.185E-03    -299.185E-03             -1.         1.08583     299.185E-03    -299.185E-03             -1.              0.    -299.185E-39     299.185E-39     1.00000E-36     241.833E-06     241.833E-06    -101.206E-06    -134.797E-06    -101.206E-06    -101.206E-06     208.242E-06    -52.4902E-21    -151.809E-06     151.809E-06         2.41477         3.54772         3.54772         1.25315         1.02846         2.51926        -1.94311         2.39108         1.25315         1.25315         3.32304    -175.552E-18    -507.723E-03     507.723E-03
              13              0.              0.              0.              0.              1.              0.              0.              1.     1.94669E-03     107.345E-06    -107.345E-06     1.94076E-03     409.169E-06     409.169E-06    -202.411E-06    -202.689E-06    -202.411E-06    -202.411E-06     408.891E-06     34.6798E-18     18.4190E-06    -18.4190E-06         4.09176         4.08399         4.08399    -6.84466E-03    -8.69993E-03         4.09269        -1.35615         4.09176    -6.84466E-03    -6.84466E-03         4.08214     115.986E-15     61.6019E-03    -61.6019E-03
              14              0.              0.              0.              0.              1.              0.              0.              1.     1.94669E-03     107.345E-06     107.345E-06     1.94076E-03     409.169E-06     409.169E-06    -202.411E-06    -202.689E-06    -202.411E-06    -202.411E-06     408.891E-06    -4.18822E-18     18.4190E-06     18.4190E-06         4.09176         4.08399         4.08399    -6.84466E-03    -8.69993E-03         4.09269        -1.35615         4.09176    -6.84466E-03    -6.84466E-03         4.08214    -14.0074E-15     61.6019E-03     61.6019E-03
              15              0.              0.              0.              0.              0.              0.              0.              0.     1.54926E-03     88.9264E-06    -88.9264E-06     1.54415E-03     389.703E-06     389.703E-06    -192.675E-06    -193.110E-06    -192.675E-06    -192.675E-06     389.267E-06    -19.6131E-18    -3.81447E-06     3.81447E-06         3.89696         3.90376         3.90376     8.26215E-03     5.35202E-03         3.89841        -1.30579         3.89696     8.26215E-03     8.26215E-03         3.90085    -65.5956E-15    -12.7574E-03     12.7574E-03
              16              0.              0.              0.              0.              0.              0.              0.              0.     1.54926E-03     88.9264E-06     88.9264E-06     1.54415E-03     389.703E-06     389.703E-06    -192.675E-06    -193.110E-06    -192.675E-06    -192.675E-06     389.267E-06     34.8775E-18    -3.81447E-06    -3.81447E-06         3.89696         3.90376         3.90376     8.26215E-03     5.35202E-03         3.89841        -1.30579         3.89696     8.26215E-03     8.26215E-03         3.90085     116.647E-15    -12.7574E-03    -12.7574E-03
              17              0.              0.              0.              0.              0.              0.              0.              0.     1.14419E-03     114.974E-06    -114.974E-06     1.13258E-03     418.098E-06     418.098E-06    -206.444E-06    -207.523E-06    -206.444E-06    -206.444E-06     417.019E-06    -4.97676E-18     9.20885E-06    -9.20885E-06         4.18115         4.16443         4.16443    -13.1017E-03    -20.3156E-03         4.18475        -1.37701         4.18113    -13.1017E-03    -13.1017E-03         4.15722    -16.6447E-15     30.7988E-03    -30.7988E-03
              18              0.              0.              0.              0.              0.              0.              0.              0.     1.14419E-03     114.974E-06     114.974E-06     1.13258E-03     418.098E-06     418.098E-06    -206.444E-06    -207.523E-06    -206.444E-06    -206.444E-06     417.019E-06     5.96149E-18     9.20885E-06     9.20885E-06         4.18115         4.16443         4.16443    -13.1017E-03    -20.3156E-03         4.18475        -1.37701         4.18113    -13.1017E-03    -13.1017E-03         4.15722     19.9381E-15     30.7988E-03     30.7988E-03
              19              0.              0.              0.              0.              0.              0.              0.              0.     763.658E-06     70.5087E-06    -70.5087E-06     757.120E-06     373.379E-06     373.379E-06    -182.939E-06    -186.674E-06    -182.939E-06    -182.939E-06     369.645E-06    -18.0580E-18    -18.4174E-06     18.4174E-06         3.73376         3.74456         3.74456     23.3679E-03    -1.61032E-03         3.74617        -1.25544         3.73354     23.3679E-03     23.3679E-03         3.71958    -60.3947E-15    -61.5968E-03     61.5968E-03
              20              0.              0.              0.              0.              0.              0.              0.              0.     763.658E-06     70.5087E-06     70.5087E-06     757.120E-06     373.379E-06     373.379E-06    -182.939E-06    -186.674E-06    -182.939E-06    -182.939E-06     369.645E-06     45.7007E-18    -18.4174E-06    -18.4174E-06         3.73376         3.74456         3.74456     23.3679E-03    -1.61032E-03         3.74617        -1.25544         3.73354     23.3679E-03     23.3679E-03         3.71958     152.845E-15    -61.5968E-03    -61.5968E-03
              21              0.              0.              0.              0.              0.              0.              0.              0.     376.630E-06     151.809E-06    -151.809E-06     309.448E-06     467.576E-06     467.576E-06    -225.915E-06    -237.228E-06    -225.915E-06    -225.915E-06     456.263E-06    -44.6113E-18     35.2543E-06    -35.2543E-06         4.67726         4.59543         4.59543    -43.3128E-03    -118.984E-03         4.71441        -1.47771         4.67521    -43.3128E-03    -43.3128E-03         4.51975    -149.202E-15     117.907E-03    -117.907E-03
              22              0.              0.              0.              0.              0.              0.              0.              0.     376.630E-06     151.809E-06     151.809E-06     309.448E-06     467.576E-06     467.576E-06    -225.915E-06    -237.228E-06    -225.915E-06    -225.915E-06     456.263E-06     28.9157E-18     35.2543E-06     35.2543E-06         4.67726         4.59543         4.59543    -43.3128E-03    -118.984E-03         4.71441        -1.47771         4.67521    -43.3128E-03    -43.3128E-03         4.51975     96.7080E-15     117.907E-03     117.907E-03
              23         1.08583    -299.185E-03     299.185E-03             -1.         1.08583    -299.185E-03     299.185E-03             -1.              0.     299.185E-39    -299.185E-39     1.00000E-36     241.833E-06     241.833E-06    -101.206E-06    -134.797E-06    -101.206E-06    -101.206E-06     208.242E-06     133.669E-21     151.809E-06    -151.809E-06         2.41477         3.54772         3.54772         1.25315         1.02846         2.51926        -1.94311         2.39108         1.25315         1.25315         3.32304     447.055E-18     507.723E-03    -507.723E-03
              24         1.08583    -299.185E-03    -299.185E-03             -1.         1.08583    -299.185E-03    -299.185E-03             -1.              0.     299.185E-39     299.185E-39     1.00000E-36     241.833E-06     241.833E-06    -101.206E-06    -134.797E-06    -101.206E-06    -101.206E-06     208.242E-06    -60.6403E-21     151.809E-06     151.809E-06         2.41477         3.54772         3.54772         1.25315         1.02846         2.51926        -1.94311         2.39108         1.25315         1.25315         3.32304    -202.810E-18     507.723E-03     507.723E-03


  Minimum                     0.    -299.185E-03    -299.185E-03             -1.              0.    -299.185E-03    -299.185E-03             -1.              0.    -151.809E-06    -151.809E-06     1.00000E-36     241.833E-06     241.833E-06    -225.915E-06    -237.228E-06    -225.915E-06    -225.915E-06     208.242E-06    -48.2593E-18    -151.809E-06    -151.809E-06         2.41477         3.54772         3.54772    -43.3128E-03    -118.984E-03         2.51926        -1.94311         2.39108    -43.3128E-03    -43.3128E-03         3.32304    -161.402E-15    -507.723E-03    -507.723E-03
         At Node              22              24              24              24              22              24              24              24              24              10              21              24              24              24              22              22              22              22              24               3              12              23              24              24              24              22              22              24              24              24              22              22              24               3              12              23

  Maximum                1.08583     299.185E-03     299.185E-03              0.         1.08583     299.185E-03     299.185E-03              1.     1.94669E-03     151.809E-06     151.809E-06     1.94076E-03     467.576E-06     467.576E-06    -101.206E-06    -134.797E-06    -101.206E-06    -101.206E-06     456.263E-06     45.7007E-18     151.809E-06     151.809E-06         4.67726         4.59543         4.59543         1.25315         1.02846         4.71441        -1.25544         4.67521         1.25315         1.25315         4.51975     152.845E-15     507.723E-03     507.723E-03
         At Node              24              12              23              22              24              12              23              14              14              22              22              14              22              22              24              24              24              24              22              20              24              24              22              22              22              24              24              22              20              22              24              24              22              20              24              24

           Total         4.34331              0.              0.             -4.         8.34331              0.              0.              0.     23.1217E-03     598.369E-39              0.     22.7362E-03     9.19903E-03     9.19903E-03    -4.44636E-03    -4.64808E-03    -4.44636E-03    -4.44636E-03     8.99731E-03    -8.09808E-18              0.              0.         91.9826         96.1596         96.1596         4.88609         3.53682         92.6228        -34.8608         91.8787         4.88609         4.88609         94.8103    -27.0839E-15              0.              0.


