********************************************************************************
Field Output Report, written Mon Feb 19 08:14:16 2024

Source 1
---------

   ODB: C:/abaqusTemp/Job-3_c3d6.odb
   Step: Step-1
   Frame: Increment      1: Step Time =    1.000

Loc 1 : Nodal values from source 1

Output sorted by column "Node Label".

Field Output reported at nodes for part: PART-1-1
   Computation algorithm: EXTRAPOLATE_COMPUTE_AVERAGE
   Averaged at nodes
   Averaging regions: ODB_REGIONS

      Node Label     U.Magnitude            U.U1            U.U2            U.U3         S.Mises     S.Max. Prin  S.Max. Prin(a)     S.Mid. Prin     S.Min. Prin        S.Tresca      S.Pressure     S.Third Inv           S.S11           S.S22           S.S33           S.S12           S.S13           S.S23
                          @Loc 1          @Loc 1          @Loc 1          @Loc 1          @Loc 1          @Loc 1          @Loc 1          @Loc 1          @Loc 1          @Loc 1          @Loc 1          @Loc 1          @Loc 1          @Loc 1          @Loc 1          @Loc 1          @Loc 1          @Loc 1
-----------------------------------------------------------------------------------------------------------------------------------------------------------------------------------------------------------------------------------------------------------------------------------------------------------------
               1              0.    -3.27740E-36     3.27740E-36     682.556E-39     682.537E-03         33.9090         33.9090         33.2302         33.2227     686.236E-03        -33.4540     682.445E-03         33.2302         33.2302         33.9015     16.3715E-18    -50.3138E-03     50.3138E-03
               2              0.     3.27360E-36     3.27360E-36     1.31744E-36     682.537E-03         33.9090         33.9090         33.2302         33.2227     686.236E-03        -33.4540     682.445E-03         33.2302         33.2302         33.9015     9.94078E-18              0.              0.
               3              0.     3.27740E-36    -3.27740E-36     682.556E-39     682.537E-03         33.9090         33.9090         33.2302         33.2227     686.236E-03        -33.4540     682.445E-03         33.2302         33.2302         33.9015     3.51010E-18     50.3138E-03    -50.3138E-03
               4              0.    -3.27360E-36    -3.27360E-36     1.31744E-36     682.537E-03         33.9090         33.9090         33.2302         33.2227     686.236E-03        -33.4540     682.445E-03         33.2302         33.2302         33.9015     9.94078E-18              0.              0.
               5     128.428E-06    -45.1315E-06     45.1315E-06     111.446E-06         1.73083        -2.93573        -3.57359        -4.66635        -4.66676         1.73103         4.08961         1.73083        -4.66633        -4.66633        -2.93618    -305.645E-06     18.0165E-03    -18.0165E-03
               6     114.336E-06     45.1772E-06     45.1772E-06     94.8200E-06         1.73083        -2.93573        -3.57359        -4.66635        -4.66676         1.73103         4.08961         1.73083        -4.66633        -4.66633        -2.93618    -305.645E-06              0.              0.
               7     128.428E-06     45.1315E-06    -45.1315E-06     111.446E-06         1.73083        -2.93573        -3.57359        -4.66635        -4.66676         1.73103         4.08961         1.73083        -4.66633        -4.66633        -2.93618    -305.645E-06    -18.0165E-03     18.0165E-03
               8     114.336E-06    -45.1772E-06    -45.1772E-06     94.8200E-06         1.73083        -2.93573        -3.57359        -4.66635        -4.66676         1.73103         4.08961         1.73083        -4.66633        -4.66633        -2.93618    -305.645E-06              0.              0.
               9     350.538E-06    -67.4326E-06     67.4326E-06     337.317E-06         2.75137     180.818E-03        -1.08663        -2.54457        -2.59581         2.77662         1.65319         2.75029        -2.57002        -2.57002     180.481E-03    -25.7842E-03    -21.2570E-03     21.2570E-03
              10     351.169E-06     71.2873E-06     71.2873E-06     336.387E-06         2.75137     180.818E-03        -1.08663        -2.54457        -2.59581         2.77662         1.65319         2.75029        -2.57002        -2.57002     180.481E-03    -25.7842E-03              0.              0.
              11     350.538E-06     67.4326E-06    -67.4326E-06     337.317E-06         2.75137     180.818E-03        -1.08663        -2.54457        -2.59581         2.77662         1.65319         2.75029        -2.57002        -2.57002     180.481E-03    -25.7842E-03     21.2570E-03    -21.2570E-03
              12     351.169E-06    -71.2873E-06    -71.2873E-06     336.387E-06         2.75137     180.818E-03        -1.08663        -2.54457        -2.59581         2.77662         1.65319         2.75029        -2.57002        -2.57002     180.481E-03    -25.7842E-03              0.              0.
              13     672.739E-06    -88.8453E-06     88.8453E-06     660.902E-06         3.29280         1.75337     125.080E-03        -1.44248        -1.62850         3.38186     439.203E-03         3.28094        -1.53366        -1.53366         1.74970     91.1755E-03     76.2920E-03    -76.2920E-03
              14     646.346E-06     75.2145E-06     75.2145E-06     637.533E-06         3.29280         1.75337     125.080E-03        -1.44248        -1.62850         3.38186     439.203E-03         3.28094        -1.53366        -1.53366         1.74970     91.1755E-03              0.              0.
              15     672.739E-06     88.8453E-06    -88.8453E-06     660.902E-06         3.29280         1.75337     125.080E-03        -1.44248        -1.62850         3.38186     439.203E-03         3.28094        -1.53366        -1.53366         1.74970     91.1755E-03    -76.2920E-03     76.2920E-03
              16     646.346E-06    -75.2145E-06    -75.2145E-06     637.533E-06         3.29280         1.75337     125.080E-03        -1.44248        -1.62850         3.38186     439.203E-03         3.28094        -1.53366        -1.53366         1.74970     91.1755E-03              0.              0.
              17     934.968E-06    -70.7781E-06     70.7781E-06     929.594E-06         3.64506         2.90256         1.02177    -527.453E-03    -924.898E-03         3.82746    -483.404E-03         3.59571    -695.796E-03    -695.796E-03         2.84180    -229.102E-03    -318.698E-03     318.698E-03
              18     1.03141E-03     105.029E-06     105.029E-06     1.02065E-03         3.64506         2.90256         1.02177    -527.453E-03    -924.898E-03         3.82746    -483.404E-03         3.59571    -695.796E-03    -695.796E-03         2.84180    -229.102E-03              0.              0.
              19     934.968E-06     70.7781E-06    -70.7781E-06     929.594E-06         3.64506         2.90256         1.02177    -527.453E-03    -924.898E-03         3.82746    -483.404E-03         3.59571    -695.796E-03    -695.796E-03         2.84180    -229.102E-03     318.698E-03    -318.698E-03
              20     1.03141E-03    -105.029E-06    -105.029E-06     1.02065E-03         3.64506         2.90256         1.02177    -527.453E-03    -924.898E-03         3.82746    -483.404E-03         3.59571    -695.796E-03    -695.796E-03         2.84180    -229.102E-03              0.              0.
              21     1.60378E-03    -114.231E-06     114.231E-06     1.59562E-03         4.66287         3.03501         3.03501    -876.174E-03        -2.12517         5.16018    -11.2207E-03         4.26148        -1.19660        -1.19660         2.42686     320.427E-03         1.17650        -1.17650
              22     1.23294E-03     66.3271E-06     66.3271E-06     1.22937E-03         4.66287         3.03501         3.03501    -876.174E-03        -2.12517         5.16018    -11.2207E-03         4.26148        -1.19660        -1.19660         2.42686     320.427E-03              0.              0.
              23     1.60378E-03     114.231E-06    -114.231E-06     1.59562E-03         4.66287         3.03501         3.03501    -876.174E-03        -2.12517         5.16018    -11.2207E-03         4.26148        -1.19660        -1.19660         2.42686     320.427E-03        -1.17650         1.17650
              24     1.23294E-03    -66.3271E-06    -66.3271E-06     1.22937E-03         4.66287         3.03501         3.03501    -876.174E-03        -2.12517         5.16018    -11.2207E-03         4.26148        -1.19660        -1.19660         2.42686     320.427E-03              0.              0.


  Minimum                     0.    -114.231E-06    -114.231E-06     682.556E-39     682.537E-03        -2.93573        -3.57359        -4.66635        -4.66676     686.236E-03        -33.4540     682.445E-03        -4.66633        -4.66633        -2.93618    -229.102E-03        -1.17650        -1.17650
         At Node               4              21              23               3               4               8               8               8               8               4               4               4               8               8               8              20              23              21

  Maximum            1.60378E-03     114.231E-06     114.231E-06     1.59562E-03         4.66287         33.9090         33.9090         33.2302         33.2227         5.16018         4.08961         4.26148         33.2302         33.2302         33.9015     320.427E-03         1.17650         1.17650
         At Node              23              23              21              23              24               4               4               4               4              24               8              24               4               4               4              24              21              23

           Total     14.1333E-03              0.              0.     13.9073E-03         67.0619         155.380         133.722         92.6927         85.1265         70.2536        -111.066         65.2068         90.2712         90.2712         152.657     625.643E-03              0.              0.


